%Mem=16GB
%NProc=8
%Chk=la_acetate_bidentate_020.chk

#MP2/Def2SVP SCF(maxcycle=100) Polar Density=MP2 MaxDisk=100GB

la_acetate_bidentate_020

	2,1
	La 0.976930 -0.001413 -0.000054
	H -9.493352 -0.368680 0.947369
	H -9.514133 -0.662590 -0.775743
	C -9.167950 0.024082 -0.012463
	C -7.692434 0.035532 -0.012353
	O -6.996846 1.100401 -0.007500
	O -6.997582 -1.034299 -0.007671
	H -9.557905 1.017964 -0.162180


