memory 4 GB
set basis def2-TZVPD
molecule{
	3 1
	La -0.736222 -0.000547 0.858403
	--
	-1 1
	H -0.127308 -0.859305 -2.401411
	H -0.114358 0.913195 -2.306661
	H -0.114358 -0.061225 -0.815921
	C 0.261482 -0.003155 -1.841791
	C 1.780302 0.007685 -1.834711
	O 2.328722 -0.944115 -2.456851
	O 2.300612 0.970805 -1.205171
}

energy('MP2/def2-[TQ]ZVPD')
