memory 200 GB
set {
	basis def2-QZVPD
	soscf true
	fail_on_maxiter false
	relativistic dkh
	dkh_order 2
}

molecule{
	3 1
	La 1.177266 0.024240 -0.004059
	--
	-1 1
	H -5.182344 1.095726 0.976126
	H -5.397605 0.828831 -0.745980
	C -4.670260 1.067564 0.019441
	C -3.658219 -0.028598 0.056483
	O -2.288165 0.463416 0.093365
	O -3.768783 -1.178218 0.033934
	H -4.210845 2.022333 -0.176311
}

energy(cbs, corl_wfn='mp2',corl_basis='def2-[TQ]ZVPD', delta_wfn='ccsd(t)', delta_basis='def2-[DT]ZVPD')
