memory 200 GB
set basis def2-QZVPD
set soscf true
set fail_on_maxiter false
molecule{
	3 1
	La 0.976930 -0.001413 -0.000054
	--
	-1 1
	H -3.793410 -0.392971 0.955455
	H -3.814191 -0.686881 -0.767657
	C -3.468008 -0.000209 -0.004377
	C -1.992492 0.011241 -0.004267
	O -1.296904 1.076110 0.000586
	O -1.297640 -1.058590 0.000415
	H -3.857963 0.993673 -0.154094
}

energy(cbs, corl_wfn='mp2',corl_basis='def2-[TQ]ZVPD', delta_wfn='ccsd(t)', delta_basis='def2-[DT]ZVPD')
