!MP2 ZORA-DEF2-TZVP def2-TZVP/C DLPNO-CCSD(T)
* xyz 3 1
	La 4.278527 2.755739 1.126851 newgto "SARC-ZORA-TZVP" end
	O 3.636498 1.601236 0.694409
	N 3.514863 -0.512086 -0.097178
	H 1.023846 -0.226712 0.952345
	H 1.023846 0.392561 -0.700953
	H 2.985659 -1.335750 -0.405698
	C 1.404015 0.568866 0.307714
	H 1.036970 1.519580 0.663822
	H 4.529509 -0.575804 -0.121045
	C 2.895150 0.518744 0.288940
*