!MP2 ZORA-DEF2-TZVP CCSD(T)
* xyz 3 1
	La -1.266293 -0.011397 -0.000010 newgto "SARC-ZORA-TZVP" end
	O 1.150475 0.166289 0.000144
	N 3.137631 1.182344 -0.000022
	H 3.780916 -1.313976 0.878678
	H 3.782089 -1.313393 -0.877884
	H 4.142220 1.159973 -0.000155
	C 3.148311 -1.235762 -0.000006
	H 2.433801 -2.043320 -0.000744
	H 2.716913 2.090442 0.000081
	C 2.473307 0.096945 0.000037
*