memory 4 GB
set basis def2-TZVPD
molecule{
	3 1
	La 0.692992 0.309259 -0.356820
	--
	0 1
	C -2.119972 -0.727437 0.843344
	C -1.322492 -0.581937 -0.419976
	H -2.001222 -0.483817 -1.271876
	H -0.695822 0.312213 -0.362966
	H -1.865402 -0.958997 2.853764
	H -0.363712 -0.857967 1.976584
	H -0.695822 -1.465627 -0.567736
	O -3.343482 -0.731617 0.879594
	N -1.373482 -0.857837 1.975504
}

energy('MP2/def2-[TQ]ZVPD')
