memory 4 GB
set basis def2-TZVPD
molecule{
	3 1
	La 1.177266 0.024240 -0.004059
	--
	-1 1
	H -4.288199 0.982411 0.950989
	H -4.503460 0.715516 -0.771118
	C -3.776115 0.954249 -0.005697
	C -2.764074 -0.141913 0.031345
	O -1.394020 0.350101 0.068227
	O -2.874638 -1.291533 0.008796
	H -3.316700 1.909018 -0.201449
}

energy('MP2/def2-[TQ]ZVPD')
