memory 4 GB
set basis def2-TZVPD
molecule{
	3 1
	La -1.266293 -0.011397 -0.000010
	--
	0 1
	O 1.698313 0.206568 0.000179
	N 3.685469 1.222623 0.000013
	H 4.328754 -1.273697 0.878713
	H 4.329927 -1.273114 -0.877849
	H 4.690058 1.200252 -0.000120
	C 3.696149 -1.195483 0.000029
	H 2.981639 -2.003041 -0.000709
	H 3.264751 2.130721 0.000116
	C 3.021145 0.137224 0.000072
}

energy('MP2/def2-[TQ]ZVPD')
