memory 200 GB
set {
	basis def2-QZVPD
	soscf true
	fail_on_maxiter false
	relativistic dkh
	dkh_order 2
}

molecule{
	3 1
	La 0.976930 -0.001413 -0.000054
	--
	-1 1
	H -2.893419 -0.396806 0.956732
	H -2.914200 -0.690716 -0.766380
	C -2.568017 -0.004044 -0.003100
	C -1.092501 0.007406 -0.002990
	O -0.396913 1.072275 0.001863
	O -0.397649 -1.062425 0.001692
	H -2.957972 0.989838 -0.152817
}

energy(cbs, corl_wfn='mp2',corl_basis='def2-[TQ]ZVPD', delta_wfn='ccsd(t)', delta_basis='def2-[DT]ZVPD')
