memory 200 GB
set basis def2-QZVPD
set soscf true
set fail_on_maxiter false
molecule{
	3 1
	La 1.177266 0.024240 -0.004059
	--
	-1 1
	H -3.298153 0.856942 0.923155
	H -3.513414 0.590047 -0.798951
	C -2.786069 0.828780 -0.033530
	C -1.774028 -0.267382 0.003512
	O -0.403974 0.224632 0.040394
	O -1.884592 -1.417002 -0.019037
	H -2.326654 1.783549 -0.229282
}

energy(cbs, corl_wfn='mp2',corl_basis='def2-[TQ]ZVPD', delta_wfn='ccsd(t)', delta_basis='def2-[DT]ZVPD')
