%Mem=16GB
%NProc=8
%Chk=la_acetate_bidentate_004.chk

#MP2/Def2SVP SCF(maxcycle=100) Polar Density=MP2 MaxDisk=100GB

la_acetate_bidentate_004

	2,1
	La 0.976930 -0.001413 -0.000054
	H -3.293415 -0.395101 0.956165
	H -3.314196 -0.689011 -0.766947
	C -2.968013 -0.002339 -0.003667
	C -1.492497 0.009111 -0.003557
	O -0.796909 1.073980 0.001296
	O -0.797645 -1.060720 0.001125
	H -3.357968 0.991543 -0.153384


