memory 4 GB
set basis def2-TZVPD
molecule{
	3 1
	La 0.984733 0.024021 -0.046567
	--
	0 1
	H 0.089610 -0.529387 -0.335122
	C -0.699015 -0.845143 0.353236
	H -2.774881 1.725613 -0.132863
	H -1.102434 1.719267 0.354585
	H -0.410925 -0.609033 1.381202
	O -3.009053 -0.733181 -0.315253
	C -1.984009 -0.148981 0.010788
	H -0.833732 -1.926754 0.263758
	N -1.932982 1.210195 0.088741
}

energy('MP2/def2-[TQ]ZVPD')
