memory 200 GB
set {
	basis def2-QZVPD
	soscf true
	fail_on_maxiter false
	relativistic dkh
	dkh_order 2
}

molecule{
	3 1
	La -1.266293 -0.011397 -0.000010
	--
	0 1
	O 1.150475 0.166289 0.000144
	N 3.137631 1.182344 -0.000022
	H 3.780916 -1.313976 0.878678
	H 3.782089 -1.313393 -0.877884
	H 4.142220 1.159973 -0.000155
	C 3.148311 -1.235762 -0.000006
	H 2.433801 -2.043320 -0.000744
	H 2.716913 2.090442 0.000081
	C 2.473307 0.096945 0.000037
}

energy(cbs, corl_wfn='mp2',corl_basis='def2-[TQ]ZVPD', delta_wfn='ccsd(t)', delta_basis='def2-[DT]ZVPD')
