%Mem=16GB
%NProc=8
%Chk=la_acetate_bidentate_012_cp.chk

#p MP2/Def2QZVP wB97XD nosymm MaxDisk=1000GB Counterpoise=2

la_acetate_bidentate_012

	2,1 3,1 -1,1
	La(Fragment=1) 0.976930 -0.001413 -0.000054
	H(Fragment=2) -5.493393 -0.385726 0.953044
	H(Fragment=2) -5.514174 -0.679636 -0.770068
	C(Fragment=2) -5.167991 0.007036 -0.006788
	C(Fragment=2) -3.692475 0.018486 -0.006678
	O(Fragment=2) -2.996887 1.083355 -0.001825
	O(Fragment=2) -2.997623 -1.051345 -0.001996
	H(Fragment=2) -5.557946 1.000918 -0.156505


