%Mem=16GB
%NProc=8
%Chk=la_amide_001.chk

#MP2/Def2SVP SCF(maxcycle=100) Polar Density=MP2 MaxDisk=100GB

la_amide_001

	3,1
	La -1.266293 -0.011397 -0.000010
	O 0.053436 0.085633 0.000074
	N 2.040592 1.101688 -0.000092
	H 2.683877 -1.394632 0.878608
	H 2.685050 -1.394049 -0.877954
	H 3.045181 1.079317 -0.000225
	C 2.051272 -1.316418 -0.000076
	H 1.336762 -2.123976 -0.000814
	H 1.619874 2.009786 0.000011
	C 1.376268 0.016289 -0.000033


