memory 4 GB
set basis def2-TZVPD
molecule{
	3 1
	La -0.736222 -0.000547 0.858403
	--
	-1 1
	O 2.397818 -0.950857 -2.642887
	O 2.369708 0.964063 -1.391207
	H -0.058212 -0.866047 -2.587447
	H -0.045262 0.906453 -2.492697
	H -0.045262 -0.067967 -1.001957
	C 0.330578 -0.009897 -2.027827
	C 1.849398 0.000943 -2.020747
}

energy('MP2/def2-[TQ]ZVPD')
