%Mem=16GB
%NProc=8
%Chk=la_amide_012.chk

#MP2/Def2SVP SCF(maxcycle=100) Polar Density=MP2 MaxDisk=100GB

la_amide_012

	3 1
	La -1.266293 -0.011397 -0.000010
	O 2.845899 0.290941 0.000252
	N 4.833055 1.306996 0.000086
	H 5.476340 -1.189324 0.878786
	H 5.477513 -1.188741 -0.877776
	H 5.837644 1.284625 -0.000047
	C 4.843735 -1.111110 0.000102
	H 4.129225 -1.918668 -0.000636
	H 4.412337 2.215094 0.000189
	C 4.168731 0.221597 0.000145


