memory 4 GB
set basis def2-TZVPD
molecule{
	3 1
	La 0.692992 0.309259 -0.356820
	--
	0 1
	H -1.604418 -0.484661 -1.270120
	C -0.925688 -0.582781 -0.418220
	H 0.033092 -0.858811 1.978340
	C -1.723168 -0.728281 0.845100
	H -0.299018 0.311369 -0.361210
	H -1.468598 -0.959841 2.855520
	H -0.299018 -1.466471 -0.565980
	O -2.946678 -0.732461 0.881350
	N -0.976678 -0.858681 1.977260
}

energy('MP2/def2-[TQ]ZVPD')
