%Mem=16GB
%NProc=8
%Chk=la_acetate_bidentate_013_cp.chk

#p MP2/Def2QZVP wB97XD nosymm MaxDisk=1000GB Counterpoise=2

la_acetate_bidentate_013

	2,1 3,1 -1,1
	La(Fragment=1) 0.976930 -0.001413 -0.000054
	H(Fragment=2) -5.993388 -0.383595 0.952334
	H(Fragment=2) -6.014169 -0.677505 -0.770778
	C(Fragment=2) -5.667986 0.009167 -0.007498
	C(Fragment=2) -4.192470 0.020617 -0.007388
	O(Fragment=2) -3.496882 1.085486 -0.002535
	O(Fragment=2) -3.497618 -1.049214 -0.002706
	H(Fragment=2) -6.057941 1.003049 -0.157215


