%Mem=16GB
%NProc=8
%Chk=la_amide_015.chk

#MP2/Def2SVP SCF(maxcycle=100) Polar Density=MP2 MaxDisk=100GB

la_amide_015

	3,1
	La -1.266293 -0.011397 -0.000010
	O 4.341862 0.400927 0.000348
	N 6.329018 1.416982 0.000182
	H 6.972303 -1.079338 0.878882
	H 6.973476 -1.078755 -0.877680
	H 7.333607 1.394611 0.000049
	C 6.339698 -1.001124 0.000198
	H 5.625188 -1.808682 -0.000540
	H 5.908300 2.325080 0.000285
	C 5.664694 0.331583 0.000241


