memory 200 GB
set {
	basis def2-QZVPD
	soscf true
	fail_on_maxiter false
	relativistic dkh
	dkh_order 2
}

molecule{
	3 1
	La -1.266293 -0.011397 -0.000010
	--
	0 1
	O 5.837824 0.510914 0.000443
	N 7.824980 1.526969 0.000277
	H 8.468265 -0.969351 0.878977
	H 8.469438 -0.968768 -0.877585
	H 8.829569 1.504598 0.000144
	C 7.835660 -0.891137 0.000293
	H 7.121150 -1.698695 -0.000445
	H 7.404262 2.435067 0.000380
	C 7.160656 0.441570 0.000336
}

energy(cbs, corl_wfn='mp2',corl_basis='def2-[TQ]ZVPD', delta_wfn='ccsd(t)', delta_basis='def2-[DT]ZVPD')
