memory 200 GB
set {
	basis def2-QZVPD
	soscf true
	fail_on_maxiter false
	relativistic dkh
	dkh_order 2
}

molecule{
	3 1
	La 0.976930 -0.001413 -0.000054
	--
	-1 1
	H -6.993378 -0.379334 0.950916
	H -7.014159 -0.673244 -0.772196
	C -6.667976 0.013428 -0.008916
	C -5.192460 0.024878 -0.008806
	O -4.496872 1.089747 -0.003953
	O -4.497608 -1.044953 -0.004124
	H -7.057931 1.007310 -0.158633
}

energy(cbs, corl_wfn='mp2',corl_basis='def2-[TQ]ZVPD', delta_wfn='ccsd(t)', delta_basis='def2-[DT]ZVPD')
