memory 4 GB
set basis def2-TZVPD
molecule{
	3 1
	La 1.315530 0.016111 -0.054744
	--
	-1 1
	C -3.015569 -0.053517 0.116912
	O -3.868576 -0.623952 -0.618431
	O -2.866498 1.171469 0.384919
	H -2.193954 -2.023276 0.512888
	H -2.087200 -0.885692 1.871345
	H -0.997790 -0.712364 0.473154
	C -2.012474 -0.978761 0.783775
}

energy('MP2/def2-[TQ]ZVPD')
