memory 4 GB
set basis def2-TZVPD
molecule{
	3 1
	La 1.315530 0.016111 -0.054744
	--
	-1 1
	O -3.405912 -0.478257 -0.724011
	O -2.403834 1.317164 0.279340
	H -1.731290 -1.877581 0.407308
	H -1.624536 -0.739997 1.765766
	H -0.535126 -0.566669 0.367574
	C -1.549810 -0.833066 0.678195
	C -2.552905 0.092178 0.011332
}

energy('MP2/def2-[TQ]ZVPD')
