memory 4 GB
set basis def2-TZVPD
molecule{
	3 1
	La 0.984733 0.024021 -0.046567
	--
	0 1
	H -0.939684 1.819887 0.407049
	H -0.248175 -0.508413 1.433666
	N -1.770232 1.310815 0.141205
	C -0.536265 -0.744523 0.405700
	H 0.252360 -0.428767 -0.282658
	C -1.821259 -0.048361 0.063252
	H -2.612131 1.826233 -0.080399
	O -2.846303 -0.632561 -0.262789
	H -0.670982 -1.826134 0.316222
}

energy('MP2/def2-[TQ]ZVPD')
