memory 4 GB
set basis def2-TZVPD
molecule{
	3 1
	La -1.266293 -0.011397 -0.000010
	--
	0 1
	H 1.994206 2.037307 0.000035
	H 3.058209 -1.367111 0.878632
	C 2.425604 -1.288897 -0.000052
	H 3.059382 -1.366528 -0.877930
	C 1.750600 0.043810 -0.000009
	N 2.414924 1.129209 -0.000068
	H 3.419513 1.106838 -0.000201
	H 1.711094 -2.096455 -0.000790
	O 0.427768 0.113154 0.000098
}

energy('MP2/def2-[TQ]ZVPD')
