%Mem=16GB
%NProc=8
%Chk=la_acetate_bidentate_002.chk

#MP2/Def2SVP SCF(maxcycle=100) Polar Density=MP2 MaxDisk=100GB

la_acetate_bidentate_002

	2,1
	La 0.976930 -0.001413 -0.000054
	H -2.893419 -0.396806 0.956732
	H -2.914200 -0.690716 -0.766380
	C -2.568017 -0.004044 -0.003100
	C -1.092501 0.007406 -0.002990
	O -0.396913 1.072275 0.001863
	O -0.397649 -1.062425 0.001692
	H -2.957972 0.989838 -0.152817


