memory 4 GB
set basis def2-TZVPD
molecule{
	3 1
	La -1.266293 -0.011397 -0.000010
	--
	0 1
	C 2.809388 0.121655 0.000058
	H 3.052994 2.115152 0.000102
	N 3.473712 1.207054 -0.000000
	H 4.478301 1.184683 -0.000133
	O 1.486556 0.190999 0.000166
	H 4.118170 -1.288683 -0.877862
	C 3.484392 -1.211052 0.000016
	H 4.116997 -1.289266 0.878699
	H 2.769882 -2.018610 -0.000723
}

energy('MP2/def2-[TQ]ZVPD')
