memory 4 GB
set basis def2-TZVPD
molecule{
	3 1
	La 0.692992 0.309259 -0.356820
	--
	0 1
	O -3.045879 -0.732250 0.880911
	H -1.567799 -0.959630 2.855081
	H -0.066109 -0.858600 1.977901
	H -1.703619 -0.484450 -1.270559
	H -0.398219 0.311580 -0.361649
	C -1.024889 -0.582570 -0.418659
	H -0.398219 -1.466260 -0.566419
	N -1.075879 -0.858470 1.976821
	C -1.822369 -0.728070 0.844661
}

energy('MP2/def2-[TQ]ZVPD')
