memory 4 GB
set basis def2-TZVPD
molecule{
	3 1
	La -0.736222 -0.000547 0.858403
	--
	-1 1
	C 0.676058 -0.043607 -2.958007
	C 2.194878 -0.032767 -2.950927
	O 2.743298 -0.984567 -3.573067
	O 2.715188 0.930353 -2.321387
	H 0.287268 -0.899757 -3.517627
	H 0.300218 0.872743 -3.422877
	H 0.300218 -0.101677 -1.932137
}

energy('MP2/def2-[TQ]ZVPD')
