memory 4 GB
set basis def2-TZVPD
molecule{
	3 1
	La 0.976930 -0.001413 -0.000054
	--
	-1 1
	H -3.226471 -0.395387 0.956260
	H -3.247252 -0.689297 -0.766852
	C -2.901069 -0.002625 -0.003572
	C -1.425553 0.008825 -0.003462
	O -0.729965 1.073694 0.001391
	O -0.730701 -1.061006 0.001220
	H -3.291024 0.991257 -0.153289
}

energy('MP2/def2-[TQ]ZVPD')
