memory 200 GB
set basis def2-QZVPD
set soscf true
set fail_on_maxiter false
molecule{
	3 1
	La -1.266293 -0.011397 -0.000010
	--
	0 1
	O 0.951014 0.151624 0.000131
	N 2.938170 1.167679 -0.000035
	H 3.581455 -1.328641 0.878665
	H 3.582628 -1.328058 -0.877897
	H 3.942759 1.145308 -0.000168
	C 2.948850 -1.250427 -0.000019
	H 2.234340 -2.057985 -0.000757
	H 2.517452 2.075777 0.000068
	C 2.273846 0.082280 0.000024
}

energy(cbs, corl_wfn='mp2',corl_basis='def2-[TQ]ZVPD', delta_wfn='ccsd(t)', delta_basis='def2-[DT]ZVPD')
