memory 4 GB
set basis def2-TZVPD
molecule{
	3 1
	La 0.976930 -0.001413 -0.000054
	--
	-1 1
	H -4.561183 -0.389699 0.954366
	H -4.581964 -0.683609 -0.768746
	C -4.235781 0.003063 -0.005466
	C -2.760265 0.014513 -0.005356
	O -2.064677 1.079382 -0.000503
	O -2.065413 -1.055318 -0.000674
	H -4.625736 0.996945 -0.155183
}

energy('MP2/def2-[TQ]ZVPD')
