%Mem=16GB
%NProc=8
%Chk=la_acetate_bidentate_014_cp.chk

#p MP2/Def2QZVP wB97XD nosymm MaxDisk=1000GB Counterpoise=2

la_acetate_bidentate_014

	2,1 3,1 -1,1
	La(Fragment=1) 0.976930 -0.001413 -0.000054
	H(Fragment=2) -6.493383 -0.381464 0.951625
	H(Fragment=2) -6.514164 -0.675374 -0.771487
	C(Fragment=2) -6.167981 0.011298 -0.008207
	C(Fragment=2) -4.692465 0.022748 -0.008097
	O(Fragment=2) -3.996877 1.087617 -0.003244
	O(Fragment=2) -3.997613 -1.047083 -0.003415
	H(Fragment=2) -6.557936 1.005180 -0.157924


