memory 200 GB
set {
	basis def2-QZVPD
	soscf true
	fail_on_maxiter false
	relativistic dkh
	dkh_order 2
}

molecule{
	3 1
	La -1.266293 -0.011397 -0.000010
	--
	0 1
	O 1.549399 0.195619 0.000170
	N 3.536555 1.211674 0.000004
	H 4.179840 -1.284646 0.878704
	H 4.181013 -1.284063 -0.877858
	H 4.541144 1.189303 -0.000129
	C 3.547235 -1.206432 0.000020
	H 2.832725 -2.013990 -0.000718
	H 3.115837 2.119772 0.000107
	C 2.872231 0.126275 0.000063
}

energy(cbs, corl_wfn='mp2',corl_basis='def2-[TQ]ZVPD', delta_wfn='ccsd(t)', delta_basis='def2-[DT]ZVPD')
