memory 200 GB
set {
	basis def2-QZVPD
	soscf true
	fail_on_maxiter false
	relativistic dkh
	dkh_order 2
}

molecule{
	3 1
	La 1.177266 0.024240 -0.004059
	--
	-1 1
	H -8.157383 1.472755 1.059763
	H -8.372644 1.205860 -0.662343
	C -7.645299 1.444593 0.103078
	C -6.633258 0.348431 0.140120
	O -5.263204 0.840445 0.177002
	O -6.743822 -0.801189 0.117571
	H -7.185884 2.399362 -0.092674
}

energy(cbs, corl_wfn='mp2',corl_basis='def2-[TQ]ZVPD', delta_wfn='ccsd(t)', delta_basis='def2-[DT]ZVPD')
