%Mem=16GB
%NProc=8
%Chk=la_acetate_bidentate_011.chk

#MP2/Def2QZVP GUESS=READ SCF(maxcycle=100) Polar Density=MP2 MaxDisk=100GB

la_acetate_bidentate_011

	2,1
	La 0.976930 -0.001413 -0.000054
	H -4.993398 -0.387857 0.953753
	H -5.014179 -0.681767 -0.769359
	C -4.667996 0.004905 -0.006079
	C -3.192480 0.016355 -0.005969
	O -2.496892 1.081224 -0.001116
	O -2.497628 -1.053476 -0.001287
	H -5.057951 0.998787 -0.155796


