memory 4 GB
set basis def2-TZVPD
molecule{
	3 1
	La 1.315530 0.016111 -0.054744
	--
	-1 1
	C -3.940897 -0.344907 0.328071
	O -4.793904 -0.915342 -0.407272
	O -3.791826 0.880079 0.596078
	H -3.119282 -2.314666 0.724047
	H -3.012528 -1.177082 2.082504
	H -1.923118 -1.003754 0.684313
	C -2.937802 -1.270151 0.994934
}

energy('MP2/def2-[TQ]ZVPD')
