memory 200 GB
set {
	basis def2-QZVPD
	soscf true
	fail_on_maxiter false
	relativistic dkh
	dkh_order 2
}

molecule{
	3 1
	La 1.177266 0.024240 -0.004059
	--
	-1 1
	H -9.644902 1.661269 1.101581
	H -9.860163 1.394374 -0.620525
	C -9.132818 1.633107 0.144896
	C -8.120777 0.536945 0.181938
	O -6.750723 1.028959 0.218820
	O -8.231341 -0.612675 0.159389
	H -8.673403 2.587876 -0.050856
}

energy(cbs, corl_wfn='mp2',corl_basis='def2-[TQ]ZVPD', delta_wfn='ccsd(t)', delta_basis='def2-[DT]ZVPD')
