memory 4 GB
set basis def2-TZVPD
molecule{
	3 1
	La 1.177266 0.024240 -0.004059
	--
	-1 1
	O -2.479055 -1.341666 -0.002324
	H -2.921117 1.858885 -0.212569
	H -3.892616 0.932278 0.939867
	H -4.107877 0.665383 -0.782239
	C -3.380532 0.904116 -0.016817
	C -2.368491 -0.192046 0.020224
	O -0.998437 0.299968 0.057107
}

energy('MP2/def2-[TQ]ZVPD')
