!MP2 ZORA-DEF2-TZVP CCSD(T)
* xyz 2 1
	La 0.976930 -0.001413 -0.000054 newgto "SARC-ZORA-TZVP" end
	H -3.317174 -0.395043 0.955793
	H -3.337955 -0.688953 -0.767319
	C -2.991772 -0.002281 -0.004039
	C -1.516256 0.009169 -0.003929
	O -0.820668 1.074038 0.000924
	O -0.821404 -1.060662 0.000753
	H -3.381727 0.991601 -0.153756
*