%Mem=16GB
%NProc=8
%Chk=la_acetate_bidentate_000.chk

#MP2/Def2QZVP GUESS=READ SCF(maxcycle=100) Polar Density=MP2 MaxDisk=100GB

la_acetate_bidentate_000

	2,1
	La 0.976930 -0.001413 -0.000054
	H -2.493423 -0.398511 0.957300
	H -2.514204 -0.692421 -0.765812
	C -2.168021 -0.005749 -0.002532
	C -0.692505 0.005701 -0.002422
	O 0.003083 1.070570 0.002431
	O 0.002347 -1.064130 0.002260
	H -2.557976 0.988133 -0.152249


