memory 200 GB
set basis def2-QZVPD
set soscf true
set fail_on_maxiter false
molecule{
	3 1
	La 0.976930 -0.001413 -0.000054
	--
	-1 1
	H -2.793420 -0.397232 0.956874
	H -2.814201 -0.691142 -0.766238
	C -2.468018 -0.004470 -0.002958
	C -0.992502 0.006980 -0.002848
	O -0.296914 1.071849 0.002005
	O -0.297650 -1.062851 0.001834
	H -2.857973 0.989412 -0.152675
}

energy(cbs, corl_wfn='mp2',corl_basis='def2-[TQ]ZVPD', delta_wfn='ccsd(t)', delta_basis='def2-[DT]ZVPD')
