!MP2 ZORA-DEF2-TZVP def2-TZVP/C DLPNO-CCSD(T)
* xyz 0 1
	La : 4.278527 2.755739 1.126851 newgto "SARC-ZORA-TZVP" end
	O 3.728877 1.767353 0.756631
	N 3.607242 -0.345970 -0.034956
	H 1.116225 -0.060596 1.014567
	H 1.116224 0.558677 -0.638731
	H 3.078037 -1.169634 -0.343476
	C 1.496394 0.734982 0.369936
	H 1.129348 1.685697 0.726044
	H 4.621888 -0.409688 -0.058823
	C 2.987528 0.684860 0.351162
*