memory 4 GB
set basis def2-TZVPD
molecule{
	3 1
	La 1.177266 0.024240 -0.004059
	--
	-1 1
	O -0.405064 0.224770 0.040425
	O -1.885682 -1.416864 -0.019006
	H -2.327744 1.783687 -0.229251
	H -3.299243 0.857080 0.923186
	H -3.514504 0.590185 -0.798920
	C -2.787159 0.828918 -0.033499
	C -1.775118 -0.267244 0.003543
}

energy('MP2/def2-[TQ]ZVPD')
