%Mem=16GB
%NProc=8
%Chk=la_amide_013.chk

#MP2/Def2QZVP GUESS=READ SCF(maxcycle=100) Polar Density=MP2 MaxDisk=100GB

la_amide_013

	3,1
	La -1.266293 -0.011397 -0.000010
	O 3.344553 0.327603 0.000284
	N 5.331709 1.343658 0.000118
	H 5.974994 -1.152662 0.878818
	H 5.976167 -1.152079 -0.877744
	H 6.336298 1.321287 -0.000015
	C 5.342389 -1.074448 0.000134
	H 4.627879 -1.882006 -0.000604
	H 4.910991 2.251756 0.000221
	C 4.667385 0.258259 0.000177


