memory 4 GB
set basis def2-QZVPD
set soscf true
set fail_on_maxiter false
molecule{
	3 1
	La 0.976930 -0.001413 -0.000054
	--
	-1 1
	H -3.293415 -0.395101 0.956165
	H -3.314196 -0.689011 -0.766947
	C -2.968013 -0.002339 -0.003667
	C -1.492497 0.009111 -0.003557
	O -0.796909 1.073980 0.001296
	O -0.797645 -1.060720 0.001125
	H -3.357968 0.991543 -0.153384
}

energy('MP2/def2-QZVPD')
