%Mem=16GB
%NProc=8
%Chk=la_amide_019.chk

#MP2/Def2SVP SCF(maxcycle=100) Polar Density=MP2 MaxDisk=100GB

la_amide_019

	3,1
	La -1.266293 -0.011397 -0.000010
	O 6.336478 0.547576 0.000475
	N 8.323634 1.563631 0.000309
	H 8.966919 -0.932689 0.879009
	H 8.968092 -0.932106 -0.877553
	H 9.328223 1.541260 0.000176
	C 8.334314 -0.854475 0.000325
	H 7.619804 -1.662033 -0.000413
	H 7.902916 2.471729 0.000412
	C 7.659310 0.478232 0.000368


