memory 4 GB
set basis def2-TZVPD
molecule{
	3 1
	La 0.984733 0.024021 -0.046567
	--
	0 1
	H -1.159231 -2.127993 0.158829
	O -3.334552 -0.934420 -0.420182
	C -2.309508 -0.350220 -0.094141
	N -2.258481 1.008956 -0.016188
	C -1.024514 -1.046382 0.248307
	H -0.235889 -0.730626 -0.440051
	H -3.100380 1.524374 -0.237792
	H -1.427933 1.518028 0.249656
	H -0.736424 -0.810272 1.276273
}

energy('MP2/def2-[TQ]ZVPD')
