memory 4 GB
set basis def2-TZVPD
molecule{
	3 1
	La 0.984733 0.024021 -0.046567
	--
	0 1
	O -3.537989 -1.060194 -0.485763
	H -3.303817 1.398599 -0.303373
	H -0.939861 -0.936046 1.210692
	C -2.512945 -0.475994 -0.159722
	H -1.362668 -2.253767 0.093248
	H -0.439326 -0.856400 -0.505632
	C -1.227951 -1.172156 0.182726
	H -1.631370 1.392254 0.184075
	N -2.461918 0.883182 -0.081769
}

energy('MP2/def2-[TQ]ZVPD')
