!MP2 ZORA-DEF2-TZVP def2-TZVP/C DLPNO-CCSD(T)
* xyz 3 1
	La 4.278527 2.755739 1.126851 newgto "SARC-ZORA-TZVP" end
	O 2.897470 0.272307 0.196632
	N 2.775834 -1.841016 -0.594955
	H 0.284818 -1.555642 0.454568
	H 0.284817 -0.936369 -1.198730
	H 2.246630 -2.664680 -0.903475
	C 0.664987 -0.760064 -0.190063
	H 0.297941 0.190651 0.166045
	H 3.790480 -1.904734 -0.618822
	C 2.156121 -0.810186 -0.208837
*