!MP2 ZORA-DEF2-TZVP def2-TZVP/C DLPNO-CCSD(T)
* xyz 2 1
	La 0.976930 -0.001413 -0.000054 newgto "SARC-ZORA-TZVP" end
	H -3.669652 -0.393455 0.955969
	H -3.690433 -0.687365 -0.767143
	C -3.344250 -0.000693 -0.003863
	C -1.868734 0.010757 -0.003753
	O -1.173146 1.075626 0.001100
	O -1.173882 -1.059074 0.000929
	H -3.734205 0.993189 -0.153580
*