memory 4 GB
set basis def2-TZVPD
molecule{
	3 1
	La 1.177266 0.024240 -0.004059
	--
	-1 1
	O -1.591811 0.375167 0.073788
	O -3.072429 -1.266467 0.014357
	H -3.514491 1.934084 -0.195888
	H -4.485990 1.007477 0.956549
	H -4.701251 0.740582 -0.765557
	C -3.973906 0.979315 -0.000136
	C -2.961865 -0.116847 0.036906
}

energy('MP2/def2-[TQ]ZVPD')
