memory 4 GB
set basis def2-TZVPD
molecule{
	3 1
	La 0.692992 0.309259 -0.356820
	--
	0 1
	H -1.270196 -0.960263 2.856398
	H 0.231494 -0.859233 1.979218
	H -0.100616 0.310947 -0.360332
	C -0.727286 -0.583203 -0.417342
	O -2.748276 -0.732883 0.882228
	C -1.524766 -0.728703 0.845978
	H -0.100616 -1.466893 -0.565102
	N -0.778276 -0.859103 1.978138
	H -1.406016 -0.485083 -1.269242
}

energy('MP2/def2-[TQ]ZVPD')
