memory 200 GB
set {
	basis def2-QZVPD
	soscf true
	fail_on_maxiter false
	relativistic dkh
	dkh_order 2
}

molecule{
	3 1
	La -1.266293 -0.011397 -0.000010
	--
	0 1
	O 6.835132 0.584238 0.000506
	N 8.822288 1.600293 0.000340
	H 9.465573 -0.896027 0.879040
	H 9.466746 -0.895444 -0.877522
	H 9.826877 1.577922 0.000207
	C 8.832968 -0.817813 0.000356
	H 8.118458 -1.625371 -0.000382
	H 8.401570 2.508391 0.000443
	C 8.157964 0.514894 0.000399
}

energy(cbs, corl_wfn='mp2',corl_basis='def2-[TQ]ZVPD', delta_wfn='ccsd(t)', delta_basis='def2-[DT]ZVPD')
