memory 4 GB
set basis def2-TZVPD
molecule{
	3 1
	La 1.315530 0.016111 -0.054744
	--
	-1 1
	O -3.035781 -0.361701 -0.808475
	O -2.033703 1.433720 0.194876
	H -1.361159 -1.761025 0.322844
	H -1.254405 -0.623441 1.681302
	H -0.164995 -0.450113 0.283110
	C -1.179679 -0.716510 0.593731
	C -2.182774 0.208734 -0.073132
}

energy('MP2/def2-[TQ]ZVPD')
