memory 4 GB
set basis def2-TZVPD
molecule{
	3 1
	La 0.976930 -0.001413 -0.000054
	--
	-1 1
	H -4.294240 -0.390836 0.954745
	H -4.315021 -0.684746 -0.768367
	C -3.968838 0.001926 -0.005087
	C -2.493322 0.013376 -0.004977
	O -1.797734 1.078245 -0.000124
	O -1.798470 -1.056455 -0.000295
	H -4.358793 0.995808 -0.154804
}

energy('MP2/def2-[TQ]ZVPD')
