%Mem=16GB
%NProc=8
%Chk=la_amide_008.chk

#MP2/Def2QZVP GUESS=READ SCF(maxcycle=100) Polar Density=MP2 MaxDisk=100GB

la_amide_008

	3,1
	La -1.266293 -0.011397 -0.000010
	O 1.449668 0.188287 0.000163
	N 3.436824 1.204342 -0.000003
	H 4.080109 -1.291978 0.878697
	H 4.081282 -1.291395 -0.877865
	H 4.441413 1.181971 -0.000136
	C 3.447504 -1.213764 0.000013
	H 2.732994 -2.021322 -0.000725
	H 3.016106 2.112440 0.000100
	C 2.772500 0.118943 0.000056


