!MP2 ZORA-DEF2-TZVP def2-TZVP/C DLPNO-CCSD(T)
* xyz 2 1
	La 0.976930 -0.001413 -0.000054 newgto "SARC-ZORA-TZVP" end
	H -3.757772 -0.393058 0.956012
	H -3.778553 -0.686968 -0.767100
	C -3.432370 -0.000296 -0.003820
	C -1.956854 0.011154 -0.003710
	O -1.261266 1.076023 0.001143
	O -1.262002 -1.058677 0.000972
	H -3.822325 0.993586 -0.153537
*