!MP2 ZORA-DEF2-TZVP CCSD(T)
* xyz 2 1
	La 0.976930 -0.001413 -0.000054 newgto "SARC-ZORA-TZVP" end
	H -4.393404 -0.390414 0.954604
	H -4.414185 -0.684324 -0.768508
	C -4.068002 0.002348 -0.005228
	C -2.592486 0.013798 -0.005118
	O -1.896898 1.078667 -0.000265
	O -1.897634 -1.056033 -0.000436
	H -4.457957 0.996230 -0.154945
*