!MP2 ZORA-DEF2-TZVP def2-TZVP/C DLPNO-CCSD(T)
* xyz -1 1
	La : 0.976930 -0.001413 -0.000054 newgto "SARC-ZORA-TZVP" end
	H -8.339987 -0.372412 0.958288
	H -8.360768 -0.666322 -0.764824
	C -8.014585 0.020350 -0.001544
	C -6.539069 0.031800 -0.001434
	O -5.843481 1.096669 0.003419
	O -5.844217 -1.038031 0.003248
	H -8.404540 1.014232 -0.151261
*