%Mem=16GB
%NProc=8
%Chk=la_acetate_bidentate_006.chk

#MP2/Def2SVP SCF(maxcycle=100) Polar Density=MP2 MaxDisk=100GB

la_acetate_bidentate_006

	2,1
	La 0.976930 -0.001413 -0.000054
	H -3.693411 -0.393397 0.955597
	H -3.714192 -0.687307 -0.767515
	C -3.368009 -0.000635 -0.004235
	C -1.892493 0.010815 -0.004125
	O -1.196905 1.075684 0.000728
	O -1.197641 -1.059016 0.000557
	H -3.757964 0.993247 -0.153952


