memory 200 GB
set basis def2-QZVPD
set soscf true
set fail_on_maxiter false
molecule{
	3 1
	La -1.266293 -0.011397 -0.000010
	--
	0 1
	O 0.352629 0.107630 0.000093
	N 2.339785 1.123685 -0.000073
	H 2.983070 -1.372635 0.878627
	H 2.984243 -1.372052 -0.877935
	H 3.344374 1.101314 -0.000206
	C 2.350465 -1.294421 -0.000057
	H 1.635955 -2.101979 -0.000795
	H 1.919067 2.031783 0.000030
	C 1.675461 0.038286 -0.000014
}

energy(cbs, corl_wfn='mp2',corl_basis='def2-[TQ]ZVPD', delta_wfn='ccsd(t)', delta_basis='def2-[DT]ZVPD')
