memory 4 GB
set basis def2-TZVPD
molecule{
	3 1
	La 0.692992 0.309259 -0.356820
	--
	0 1
	N -1.472683 -0.857626 1.975065
	H -0.795023 -1.465416 -0.568175
	C -2.219173 -0.727226 0.842905
	H -2.100423 -0.483606 -1.272315
	H -0.795023 0.312424 -0.363405
	H -0.462913 -0.857756 1.976145
	O -3.442683 -0.731406 0.879155
	C -1.421693 -0.581726 -0.420415
	H -1.964603 -0.958786 2.853325
}

energy('MP2/def2-[TQ]ZVPD')
