%Mem=16GB
%NProc=8
%Chk=la_amide_003.chk

#MP2/Def2SVP SCF(maxcycle=100) Polar Density=MP2 MaxDisk=100GB

la_amide_003

	3 1
	La -1.266293 -0.011397 -0.000010
	O 0.452360 0.114962 0.000100
	N 2.439516 1.131017 -0.000066
	H 3.082801 -1.365303 0.878634
	H 3.083974 -1.364720 -0.877928
	H 3.444105 1.108646 -0.000199
	C 2.450196 -1.287089 -0.000050
	H 1.735686 -2.094647 -0.000788
	H 2.018798 2.039115 0.000037
	C 1.775192 0.045618 -0.000007


