memory 4 GB
set basis def2-TZVPD
molecule{
	3 1
	La 0.984733 0.024021 -0.046567
	--
	0 1
	H -0.955794 -2.002219 0.224409
	N -2.055044 1.134731 0.049392
	C -0.821077 -0.920608 0.313887
	H -2.896943 1.650149 -0.172212
	H -1.224496 1.643803 0.315236
	O -3.131115 -0.808646 -0.354602
	H -0.032452 -0.604851 -0.374471
	H -0.532987 -0.684497 1.341853
	C -2.106071 -0.224445 -0.028561
}

energy('MP2/def2-[TQ]ZVPD')
