!MP2 ZORA-DEF2-TZVP def2-TZVP/C DLPNO-CCSD(T)
* xyz -1 1
	La : 0.976930 -0.001413 -0.000054 newgto "SARC-ZORA-TZVP" end
	H -4.198369 -0.391073 0.956231
	H -4.219150 -0.684983 -0.766881
	C -3.872967 0.001689 -0.003601
	C -2.397451 0.013139 -0.003491
	O -1.701863 1.078008 0.001362
	O -1.702599 -1.056692 0.001191
	H -4.262922 0.995571 -0.153318
*