%Mem=16GB
%NProc=8
%Chk=la_acetate_bidentate_018.chk

#MP2/Def2SVP SCF(maxcycle=100) Polar Density=MP2 MaxDisk=100GB

la_acetate_bidentate_018

	2,1
	La 0.976930 -0.001413 -0.000054
	H -8.493363 -0.372941 0.948788
	H -8.514144 -0.666851 -0.774324
	C -8.167961 0.019821 -0.011044
	C -6.692445 0.031271 -0.010934
	O -5.996857 1.096140 -0.006081
	O -5.997593 -1.038560 -0.006252
	H -8.557916 1.013703 -0.160761


