memory 50 GB
set basis def2-QZVPD
set soscf true
set fail_on_maxiter false
molecule{
	3 1
	La 0.976930 -0.001413 -0.000054
	--
	-1 1
	H -4.193406 -0.391266 0.954888
	H -4.214187 -0.685176 -0.768224
	C -3.868004 0.001496 -0.004944
	C -2.392488 0.012946 -0.004834
	O -1.696900 1.077815 0.000019
	O -1.697636 -1.056885 -0.000152
	H -4.257959 0.995378 -0.154661
}

energy(cbs, corl_wfn='mp2',corl_basis='def2-[TQ]ZVPD', delta_wfn='ccsd(t)', delta_basis='def2-[DT]ZVPD')
