memory 200 GB
set {
	basis def2-QZVPD
	soscf true
	fail_on_maxiter false
	relativistic dkh
	dkh_order 2
}

molecule{
	3 1
	La 0.976930 -0.001413 -0.000054
	--
	-1 1
	H -7.493373 -0.377203 0.950206
	H -7.514154 -0.671113 -0.772906
	C -7.167971 0.015559 -0.009626
	C -5.692455 0.027009 -0.009516
	O -4.996867 1.091878 -0.004663
	O -4.997603 -1.042822 -0.004834
	H -7.557926 1.009441 -0.159343
}

energy(cbs, corl_wfn='mp2',corl_basis='def2-[TQ]ZVPD', delta_wfn='ccsd(t)', delta_basis='def2-[DT]ZVPD')
