!MP2 ZORA-DEF2-TZVP def2-TZVP/C DLPNO-CCSD(T)
* xyz -1 1
	La : 0.976930 -0.001413 -0.000054 newgto "SARC-ZORA-TZVP" end
	H -3.229054 -0.395440 0.955750
	H -3.249835 -0.689350 -0.767362
	C -2.903652 -0.002678 -0.004082
	C -1.428136 0.008772 -0.003972
	O -0.732548 1.073641 0.000881
	O -0.733284 -1.061059 0.000710
	H -3.293607 0.991204 -0.153799
*