memory 4 GB
set basis def2-TZVPD
molecule{
	3 1
	La 0.692992 0.309259 -0.356820
	--
	0 1
	H -1.766201 -0.959208 2.854203
	H -0.596621 -1.465838 -0.567297
	O -3.244281 -0.731828 0.880033
	H -1.902021 -0.484028 -1.271437
	C -2.020771 -0.727648 0.843783
	C -1.223291 -0.582148 -0.419537
	N -1.274281 -0.858048 1.975943
	H -0.264511 -0.858178 1.977023
	H -0.596621 0.312002 -0.362527
}

energy('MP2/def2-[TQ]ZVPD')
