!MP2 ZORA-DEF2-TZVP CCSD(T)
* xyz 2 1
	La 1.177266 0.024240 -0.004059 newgto "SARC-ZORA-TZVP" end
	H -4.091497 0.957482 0.945459
	H -4.306758 0.690587 -0.776647
	C -3.579413 0.929320 -0.011226
	C -2.567372 -0.166842 0.025816
	O -1.197318 0.325172 0.062698
	O -2.677936 -1.316462 0.003267
	H -3.119998 1.884089 -0.206978
*