memory 4 GB
set basis def2-TZVPD
molecule{
	3 1
	La -0.736222 -0.000547 0.858403
	--
	-1 1
	O 2.507900 0.950579 -1.763279
	H 0.079980 -0.879531 -2.959519
	H 0.092930 0.892969 -2.864769
	H 0.092930 -0.081451 -1.374029
	C 0.468770 -0.023381 -2.399899
	C 1.987590 -0.012541 -2.392819
	O 2.536010 -0.964341 -3.014959
}

energy('MP2/def2-[TQ]ZVPD')
