%Mem=16GB
%NProc=8
%Chk=la_acetate_bidentate_004_cp.chk

#p MP2/Def2QZVP wB97XD nosymm MaxDisk=1000GB Counterpoise=2

la_acetate_bidentate_004

	2,1 3,1 -1,1
	La(Fragment=1) 0.976930 -0.001413 -0.000054
	H(Fragment=2) -3.293415 -0.395101 0.956165
	H(Fragment=2) -3.314196 -0.689011 -0.766947
	C(Fragment=2) -2.968013 -0.002339 -0.003667
	C(Fragment=2) -1.492497 0.009111 -0.003557
	O(Fragment=2) -0.796909 1.073980 0.001296
	O(Fragment=2) -0.797645 -1.060720 0.001125
	H(Fragment=2) -3.357968 0.991543 -0.153384


