memory 4 GB
set basis def2-TZVPD
molecule{
	3 1
	La -0.736222 -0.000547 0.858403
	--
	-1 1
	C 1.711206 0.014427 -1.648675
	O 2.259626 -0.937373 -2.270815
	O 2.231516 0.977547 -1.019135
	H -0.196404 -0.852563 -2.215375
	H -0.183454 0.919937 -2.120625
	H -0.183454 -0.054483 -0.629885
	C 0.192386 0.003587 -1.655755
}

energy('MP2/def2-[TQ]ZVPD')
