%Mem=16GB
%NProc=8
%Chk=la_amide_016.chk

#MP2/Def2SVP SCF(maxcycle=100) Polar Density=MP2 MaxDisk=100GB

la_amide_016

	3 1
	La -1.266293 -0.011397 -0.000010
	O 4.840516 0.437589 0.000379
	N 6.827672 1.453644 0.000213
	H 7.470957 -1.042676 0.878913
	H 7.472130 -1.042093 -0.877649
	H 7.832261 1.431273 0.000080
	C 6.838352 -0.964462 0.000229
	H 6.123842 -1.772020 -0.000509
	H 6.406954 2.361742 0.000316
	C 6.163348 0.368245 0.000272


