memory 200 GB
set {
	basis def2-QZVPD
	soscf true
	fail_on_maxiter false
	relativistic dkh
	dkh_order 2
}

molecule{
	3 1
	La 1.177266 0.024240 -0.004059
	--
	-1 1
	H -3.992329 0.944915 0.942671
	H -4.207590 0.678020 -0.779435
	C -3.480245 0.916753 -0.014014
	C -2.468204 -0.179409 0.023028
	O -1.098150 0.312605 0.059910
	O -2.578768 -1.329029 0.000479
	H -3.020830 1.871522 -0.209766
}

energy(cbs, corl_wfn='mp2',corl_basis='def2-[TQ]ZVPD', delta_wfn='ccsd(t)', delta_basis='def2-[DT]ZVPD')
