%Mem=16GB
%NProc=8
%Chk=la_acetate_bidentate_007.chk

#MP2/Def2SVP SCF(maxcycle=100) Polar Density=MP2 MaxDisk=100GB

la_acetate_bidentate_007

	2,1
	La 0.976930 -0.001413 -0.000054
	H -3.893409 -0.392544 0.955314
	H -3.914190 -0.686454 -0.767798
	C -3.568007 0.000218 -0.004518
	C -2.092491 0.011668 -0.004408
	O -1.396903 1.076537 0.000445
	O -1.397639 -1.058163 0.000274
	H -3.957962 0.994100 -0.154235


