!MP2 ZORA-DEF2-TZVP def2-TZVP/C DLPNO-CCSD(T)
* xyz 3 1
	La 4.278527 2.755739 1.126851 newgto "SARC-ZORA-TZVP" end
	O 1.234655 -2.717786 -0.923366
	N 1.113020 -4.831108 -1.714953
	H -1.377997 -4.545734 -0.665431
	H -1.377998 -3.926461 -2.318728
	H 0.583815 -5.654772 -2.023473
	C -0.997828 -3.750156 -1.310061
	H -1.364874 -2.799442 -0.953953
	H 2.127666 -4.894826 -1.738820
	C 0.493306 -3.800278 -1.328835
*