!MP2 ZORA-DEF2-TZVP def2-TZVP/C DLPNO-CCSD(T)
* xyz -1 1
	La : 0.976930 -0.001413 -0.000054 newgto "SARC-ZORA-TZVP" end
	H -6.136999 -0.382338 0.957194
	H -6.157780 -0.676248 -0.765918
	C -5.811597 0.010424 -0.002638
	C -4.336081 0.021874 -0.002528
	O -3.640493 1.086743 0.002325
	O -3.641229 -1.047957 0.002154
	H -6.201552 1.004306 -0.152355
*