memory 50 GB
set basis def2-QZVPD
set soscf true
set fail_on_maxiter false
molecule{
	3 1
	La -1.266293 -0.011397 -0.000010
	--
	0 1
	O 1.748860 0.210284 0.000182
	N 3.736016 1.226339 0.000016
	H 4.379301 -1.269981 0.878716
	H 4.380474 -1.269398 -0.877846
	H 4.740605 1.203968 -0.000117
	C 3.746696 -1.191767 0.000032
	H 3.032186 -1.999325 -0.000706
	H 3.315298 2.134437 0.000119
	C 3.071692 0.140940 0.000075
}

energy(cbs, corl_wfn='mp2',corl_basis='def2-[TQ]ZVPD', delta_wfn='ccsd(t)', delta_basis='def2-[DT]ZVPD')
