%Mem=16GB
%NProc=8
%Chk=la_acetate_bidentate_020_cp.chk

#p MP2/Def2QZVP wB97XD nosymm MaxDisk=1000GB Counterpoise=2

la_acetate_bidentate_020

	2,1 3,1 -1,1
	La(Fragment=1) 0.976930 -0.001413 -0.000054
	H(Fragment=2) -9.493352 -0.368680 0.947369
	H(Fragment=2) -9.514133 -0.662590 -0.775743
	C(Fragment=2) -9.167950 0.024082 -0.012463
	C(Fragment=2) -7.692434 0.035532 -0.012353
	O(Fragment=2) -6.996846 1.100401 -0.007500
	O(Fragment=2) -6.997582 -1.034299 -0.007671
	H(Fragment=2) -9.557905 1.017964 -0.162180


