%Mem=16GB
%NProc=8
%Chk=la_amide_010.chk

#MP2/Def2QZVP GUESS=READ SCF(maxcycle=100) Polar Density=MP2 MaxDisk=100GB

la_amide_010

	3,1
	La -1.266293 -0.011397 -0.000010
	O 1.848591 0.217616 0.000189
	N 3.835747 1.233671 0.000023
	H 4.479032 -1.262649 0.878723
	H 4.480205 -1.262066 -0.877839
	H 4.840336 1.211300 -0.000110
	C 3.846427 -1.184435 0.000039
	H 3.131917 -1.991993 -0.000699
	H 3.415029 2.141769 0.000126
	C 3.171423 0.148272 0.000082


