memory 4 GB
set basis def2-TZVPD
molecule{
	3 1
	La 0.984733 0.024021 -0.046567
	--
	0 1
	O -2.764928 -0.582251 -0.236556
	H -0.589607 -1.775824 0.342455
	H 0.333735 -0.378457 -0.256425
	N -1.688857 1.361125 0.167438
	H -0.858309 1.870197 0.433282
	H -0.166800 -0.458103 1.459899
	C -0.454890 -0.694213 0.431933
	H -2.530756 1.876543 -0.054166
	C -1.739884 0.001949 0.089485
}

energy('MP2/def2-[TQ]ZVPD')
