memory 200 GB
set basis def2-QZVPD
set soscf true
set fail_on_maxiter false
molecule{
	3 1
	La 0.976930 -0.001413 -0.000054
	--
	-1 1
	H -2.693421 -0.397658 0.957016
	H -2.714202 -0.691568 -0.766096
	C -2.368019 -0.004896 -0.002816
	C -0.892503 0.006554 -0.002706
	O -0.196915 1.071423 0.002147
	O -0.197651 -1.063277 0.001976
	H -2.757974 0.988986 -0.152533
}

energy(cbs, corl_wfn='mp2',corl_basis='def2-[TQ]ZVPD', delta_wfn='ccsd(t)', delta_basis='def2-[DT]ZVPD')
