memory 4 GB
set basis def2-TZVPD
molecule{
	3 1
	La 1.315530 0.016111 -0.054744
	--
	-1 1
	H -1.460454 -0.858059 0.578733
	C -2.475138 -1.124456 0.889354
	C -3.478233 -0.199212 0.222491
	O -4.331240 -0.769647 -0.512852
	O -3.329162 1.025774 0.490499
	H -2.656618 -2.168971 0.618467
	H -2.549864 -1.031387 1.976925
}

energy('MP2/def2-[TQ]ZVPD')
