memory 4 GB
set basis def2-TZVPD
set soscf true
set fail_on_maxiter false
molecule{
	3 1
	La -1.266293 -0.011397 -0.000010
	--
	0 1
	O 0.252898 0.100297 0.000087
	N 2.240054 1.116352 -0.000079
	H 2.883339 -1.379968 0.878621
	H 2.884512 -1.379385 -0.877941
	H 3.244643 1.093981 -0.000212
	C 2.250734 -1.301754 -0.000063
	H 1.536224 -2.109312 -0.000801
	H 1.819336 2.024450 0.000024
	C 1.575730 0.030953 -0.000020
}

energy('MP2/def2-[TQ]ZVPD')
