memory 4 GB
set basis def2-TZVPD
molecule{
	3 1
	La 1.177266 0.024240 -0.004059
	--
	-1 1
	O -1.789602 0.400233 0.079349
	O -3.270220 -1.241401 0.019918
	H -3.712282 1.959150 -0.190327
	H -4.683781 1.032543 0.962109
	H -4.899042 0.765648 -0.759997
	C -4.171697 1.004381 0.005425
	C -3.159656 -0.091781 0.042467
}

energy('MP2/def2-[TQ]ZVPD')
