%Mem=16GB
%NProc=8
%Chk=la_acetate_bidentate_017_cp.chk

#p MP2/Def2QZVP wB97XD nosymm MaxDisk=1000GB Counterpoise=2

la_acetate_bidentate_017

	2,1 3,1 -1,1
	La(Fragment=1) 0.976930 -0.001413 -0.000054
	H(Fragment=2) -7.993368 -0.375072 0.949497
	H(Fragment=2) -8.014149 -0.668982 -0.773615
	C(Fragment=2) -7.667966 0.017690 -0.010335
	C(Fragment=2) -6.192450 0.029140 -0.010225
	O(Fragment=2) -5.496862 1.094009 -0.005372
	O(Fragment=2) -5.497598 -1.040691 -0.005543
	H(Fragment=2) -8.057921 1.011572 -0.160052


