memory 4 GB
set basis def2-TZVPD
molecule{
	3 1
	La -0.736222 -0.000547 0.858403
	--
	-1 1
	H 0.023834 0.899711 -2.678733
	H 0.023834 -0.074709 -1.187993
	C 0.399674 -0.016639 -2.213863
	C 1.918494 -0.005799 -2.206783
	O 2.466914 -0.957599 -2.828923
	O 2.438804 0.957321 -1.577243
	H 0.010884 -0.872789 -2.773483
}

energy('MP2/def2-[TQ]ZVPD')
