memory 4 GB
set basis def2-TZVPD
molecule{
	3 1
	La 1.315530 0.016111 -0.054744
	--
	-1 1
	C -2.367839 0.150456 -0.030900
	O -3.220846 -0.419979 -0.766243
	O -2.218768 1.375442 0.237108
	H -1.546224 -1.819303 0.365076
	H -1.439470 -0.681719 1.723534
	H -0.350060 -0.508391 0.325342
	C -1.364744 -0.774788 0.635963
}

energy('MP2/def2-[TQ]ZVPD')
