%Mem=16GB
%NProc=8
%Chk=la_acetate_bidentate_019.chk

#MP2/Def2SVP SCF(maxcycle=100) Polar Density=MP2 MaxDisk=100GB

la_acetate_bidentate_019

	2,1
	La 0.976930 -0.001413 -0.000054
	H -8.993358 -0.370810 0.948078
	H -9.014139 -0.664720 -0.775034
	C -8.667956 0.021952 -0.011754
	C -7.192440 0.033402 -0.011644
	O -6.496852 1.098271 -0.006791
	O -6.497588 -1.036429 -0.006962
	H -9.057911 1.015834 -0.161471


