!MP2 ZORA-DEF2-TZVP def2-TZVP/C DLPNO-CCSD(T)
* xyz 0 1
	La : 4.278527 2.755739 1.126851 newgto "SARC-ZORA-TZVP" end
	O 3.405552 1.185946 0.538854
	N 3.283917 -0.927376 -0.252733
	H 0.792900 -0.642003 0.796789
	H 0.792899 -0.022729 -0.856508
	H 2.754712 -1.751041 -0.561253
	C 1.173069 0.153575 0.152159
	H 0.806023 1.104290 0.508267
	H 4.298562 -0.991095 -0.276600
	C 2.664203 0.103454 0.133385
*