memory 4 GB
set basis def2-TZVPD
molecule{
	3 1
	La 1.177266 0.024240 -0.004059
	--
	-1 1
	H -3.497034 0.882146 0.928747
	H -3.712295 0.615251 -0.793359
	C -2.984950 0.853984 -0.027938
	C -1.972909 -0.242178 0.009104
	O -0.602855 0.249836 0.045985
	O -2.083473 -1.391798 -0.013445
	H -2.525535 1.808753 -0.223690
}

energy('MP2/def2-[TQ]ZVPD')
