memory 50 GB
set basis def2-QZVPD
set soscf true
set fail_on_maxiter false
molecule{
	3 1
	La 0.976930 -0.001413 -0.000054
	--
	-1 1
	H -3.593412 -0.393823 0.955739
	H -3.614193 -0.687733 -0.767373
	C -3.268010 -0.001061 -0.004093
	C -1.792494 0.010389 -0.003983
	O -1.096906 1.075258 0.000870
	O -1.097642 -1.059442 0.000699
	H -3.657965 0.992821 -0.153810
}

energy(cbs, corl_wfn='mp2',corl_basis='def2-[TQ]ZVPD', delta_wfn='ccsd(t)', delta_basis='def2-[DT]ZVPD')
