memory 4 GB
set basis def2-TZVPD
molecule{
	3 1
	La -0.736222 -0.000547 0.858403
	--
	-1 1
	C 2.125782 -0.026025 -2.764891
	O 2.674202 -0.977825 -3.387031
	O 2.646092 0.937095 -2.135351
	H 0.218172 -0.893015 -3.331591
	H 0.231122 0.879485 -3.236841
	H 0.231122 -0.094935 -1.746101
	C 0.606962 -0.036865 -2.771971
}

energy('MP2/def2-[TQ]ZVPD')
