%Mem=16GB
%NProc=8
%Chk=la_acetate_bidentate_011_cp.chk

#p MP2/Def2QZVP wB97XD nosymm MaxDisk=1000GB Counterpoise=2

la_acetate_bidentate_011

	2,1 3,1 -1,1
	La(Fragment=1) 0.976930 -0.001413 -0.000054
	H(Fragment=2) -4.993398 -0.387857 0.953753
	H(Fragment=2) -5.014179 -0.681767 -0.769359
	C(Fragment=2) -4.667996 0.004905 -0.006079
	C(Fragment=2) -3.192480 0.016355 -0.005969
	O(Fragment=2) -2.496892 1.081224 -0.001116
	O(Fragment=2) -2.497628 -1.053476 -0.001287
	H(Fragment=2) -5.057951 0.998787 -0.155796


