memory 200 GB
set {
	basis def2-QZVPD
	soscf true
	fail_on_maxiter false
	relativistic dkh
	dkh_order 2
}

molecule{
	3 1
	La -1.266293 -0.011397 -0.000010
	--
	0 1
	O 0.651821 0.129627 0.000112
	N 2.638977 1.145682 -0.000054
	H 3.282262 -1.350638 0.878646
	H 3.283435 -1.350055 -0.877916
	H 3.643566 1.123311 -0.000187
	C 2.649657 -1.272424 -0.000038
	H 1.935147 -2.079982 -0.000776
	H 2.218259 2.053780 0.000049
	C 1.974653 0.060283 0.000005
}

energy(cbs, corl_wfn='mp2',corl_basis='def2-[TQ]ZVPD', delta_wfn='ccsd(t)', delta_basis='def2-[DT]ZVPD')
