memory 50 GB
set basis def2-QZVPD
set soscf true
set fail_on_maxiter false
molecule{
	3 1
	La 0.976930 -0.001413 -0.000054
	--
	-1 1
	H -4.393404 -0.390414 0.954604
	H -4.414185 -0.684324 -0.768508
	C -4.068002 0.002348 -0.005228
	C -2.592486 0.013798 -0.005118
	O -1.896898 1.078667 -0.000265
	O -1.897634 -1.056033 -0.000436
	H -4.457957 0.996230 -0.154945
}

energy(cbs, corl_wfn='mp2',corl_basis='def2-[TQ]ZVPD', delta_wfn='ccsd(t)', delta_basis='def2-[DT]ZVPD')
