!MP2 ZORA-DEF2-TZVP CCSD(T)
* xyz 2 1
	La 1.177266 0.024240 -0.004059newgto"SARC-ZORA-TZVP"
	H -5.678184 1.158564 0.990065
	H -5.893445 0.891669 -0.732041
	C -5.166100 1.130402 0.033380
	C -4.154059 0.034240 0.070422
	O -2.784005 0.526254 0.107304
	O -4.264623 -1.115380 0.047873
	H -4.706685 2.085171 -0.162372
*