!MP2 ZORA-DEF2-TZVP def2-TZVP/C DLPNO-CCSD(T)
* xyz 0 1
	La : 4.278527 2.755739 1.126851 newgto "SARC-ZORA-TZVP" end
	O 2.989848 0.438423 0.258854
	N 2.868213 -1.674900 -0.532733
	H 0.377196 -1.389526 0.516790
	H 0.377196 -0.770252 -1.136508
	H 2.339008 -2.498564 -0.841253
	C 0.757365 -0.593948 -0.127841
	H 0.390320 0.356767 0.228267
	H 3.882859 -1.738618 -0.556600
	C 2.248500 -0.644069 -0.146615
*