memory 50 GB
set basis def2-QZVPD
set soscf true
set fail_on_maxiter false
molecule{
	3 1
	La -1.266293 -0.011397 -0.000010
	--
	0 1
	O 1.649130 0.202951 0.000176
	N 3.636286 1.219006 0.000010
	H 4.279571 -1.277314 0.878710
	H 4.280744 -1.276731 -0.877852
	H 4.640875 1.196635 -0.000123
	C 3.646966 -1.199100 0.000026
	H 2.932456 -2.006658 -0.000712
	H 3.215568 2.127104 0.000113
	C 2.971962 0.133607 0.000069
}

energy(cbs, corl_wfn='mp2',corl_basis='def2-[TQ]ZVPD', delta_wfn='ccsd(t)', delta_basis='def2-[DT]ZVPD')
