%Mem=16GB
%NProc=8
%Chk=la_acetate_bidentate_016_cp.chk

#p MP2/Def2QZVP wB97XD nosymm MaxDisk=1000GB Counterpoise=2

la_acetate_bidentate_016

	2,1 3,1 -1,1
	La(Fragment=1) 0.976930 -0.001413 -0.000054
	H(Fragment=2) -7.493373 -0.377203 0.950206
	H(Fragment=2) -7.514154 -0.671113 -0.772906
	C(Fragment=2) -7.167971 0.015559 -0.009626
	C(Fragment=2) -5.692455 0.027009 -0.009516
	O(Fragment=2) -4.996867 1.091878 -0.004663
	O(Fragment=2) -4.997603 -1.042822 -0.004834
	H(Fragment=2) -7.557926 1.009441 -0.159343


