!MP2 ZORA-DEF2-TZVP CCSD(T)
* xyz 2 1
	La 1.177266 0.024240 -0.004059newgto"SARC-ZORA-TZVP"
	H -5.182344 1.095726 0.976126
	H -5.397605 0.828831 -0.745980
	C -4.670260 1.067564 0.019441
	C -3.658219 -0.028598 0.056483
	O -2.288165 0.463416 0.093365
	O -3.768783 -1.178218 0.033934
	H -4.210845 2.022333 -0.176311
*