%Mem=16GB
%NProc=8
%Chk=la_acetate_bidentate_000_cp.chk

#p MP2/Def2QZVP wB97XD nosymm MaxDisk=1000GB Counterpoise=2

la_acetate_bidentate_000

	2,1 3,1 -1,1
	La(Fragment=1) 0.976930 -0.001413 -0.000054
	H(Fragment=2) -2.493423 -0.398511 0.957300
	H(Fragment=2) -2.514204 -0.692421 -0.765812
	C(Fragment=2) -2.168021 -0.005749 -0.002532
	C(Fragment=2) -0.692505 0.005701 -0.002422
	O(Fragment=2) 0.003083 1.070570 0.002431
	O(Fragment=2) 0.002347 -1.064130 0.002260
	H(Fragment=2) -2.557976 0.988133 -0.152249


