memory 4 GB
set basis def2-TZVPD
molecule{
	3 1
	La 0.976930 -0.001413 -0.000054
	--
	-1 1
	O -0.463022 1.072557 0.001769
	O -0.463758 -1.062143 0.001598
	H -3.024081 0.990120 -0.152911
	H -2.959528 -0.396524 0.956638
	H -2.980309 -0.690434 -0.766474
	C -2.634126 -0.003762 -0.003194
	C -1.158610 0.007688 -0.003084
}

energy('MP2/def2-[TQ]ZVPD')
