!MP2 ZORA-DEF2-TZVP CCSD(T)
* xyz 2 1
	La 0.976930 -0.001413 -0.000054 newgto "SARC-ZORA-TZVP" end
	H -3.793410 -0.392971 0.955455
	H -3.814191 -0.686881 -0.767657
	C -3.468008 -0.000209 -0.004377
	C -1.992492 0.011241 -0.004267
	O -1.296904 1.076110 0.000586
	O -1.297640 -1.058590 0.000415
	H -3.857963 0.993673 -0.154094
*