memory 50 GB
set basis def2-QZVPD
set soscf true
set fail_on_maxiter false
molecule{
	3 1
	La -1.266293 -0.011397 -0.000010
	--
	0 1
	O 1.349937 0.180954 0.000157
	N 3.337093 1.197009 -0.000009
	H 3.980378 -1.299311 0.878691
	H 3.981551 -1.298728 -0.877871
	H 4.341682 1.174638 -0.000142
	C 3.347773 -1.221097 0.000007
	H 2.633263 -2.028655 -0.000731
	H 2.916375 2.105107 0.000094
	C 2.672769 0.111610 0.000050
}

energy(cbs, corl_wfn='mp2',corl_basis='def2-[TQ]ZVPD', delta_wfn='ccsd(t)', delta_basis='def2-[DT]ZVPD')
