memory 50 GB
set basis def2-QZVPD
set soscf true
set fail_on_maxiter false
molecule{
	3 1
	La 0.976930 -0.001413 -0.000054
	--
	-1 1
	H -6.493383 -0.381464 0.951625
	H -6.514164 -0.675374 -0.771487
	C -6.167981 0.011298 -0.008207
	C -4.692465 0.022748 -0.008097
	O -3.996877 1.087617 -0.003244
	O -3.997613 -1.047083 -0.003415
	H -6.557936 1.005180 -0.157924
}

energy(cbs, corl_wfn='mp2',corl_basis='def2-[TQ]ZVPD', delta_wfn='ccsd(t)', delta_basis='def2-[DT]ZVPD')
