%Mem=16GB
%NProc=8
%Chk=la_amide_000.chk

#MP2/Def2SVP SCF(maxcycle=100) Polar Density=MP2 MaxDisk=100GB

la_amide_000

	3 1
	La -1.266293 -0.011397 -0.000010
	O -0.146025 0.070968 0.000061
	N 1.841131 1.087023 -0.000105
	H 2.484416 -1.409297 0.878595
	H 2.485589 -1.408714 -0.877967
	H 2.845720 1.064652 -0.000238
	C 1.851811 -1.331083 -0.000089
	H 1.137301 -2.138641 -0.000827
	H 1.420413 1.995121 -0.000002
	C 1.176807 0.001624 -0.000046


