%Mem=16GB
%NProc=8
%Chk=la_amide_007.chk

#MP2/Def2QZVP GUESS=READ SCF(maxcycle=100) Polar Density=MP2 MaxDisk=100GB

la_amide_007

	3,1
	La -1.266293 -0.011397 -0.000010
	O 1.250206 0.173622 0.000150
	N 3.237362 1.189677 -0.000016
	H 3.880647 -1.306643 0.878684
	H 3.881820 -1.306060 -0.877878
	H 4.241951 1.167306 -0.000149
	C 3.248042 -1.228429 0.000000
	H 2.533532 -2.035987 -0.000738
	H 2.816644 2.097775 0.000087
	C 2.573038 0.104278 0.000043


