%Mem=16GB
%NProc=8
%Chk=la_acetate_bidentate_009_cp.chk

#p MP2/Def2QZVP wB97XD nosymm MaxDisk=1000GB Counterpoise=2

la_acetate_bidentate_009

	2,1 3,1 -1,1
	La(Fragment=1) 0.976930 -0.001413 -0.000054
	H(Fragment=2) -4.293405 -0.390840 0.954746
	H(Fragment=2) -4.314186 -0.684750 -0.768366
	C(Fragment=2) -3.968003 0.001922 -0.005086
	C(Fragment=2) -2.492487 0.013372 -0.004976
	O(Fragment=2) -1.796899 1.078241 -0.000123
	O(Fragment=2) -1.797635 -1.056459 -0.000294
	H(Fragment=2) -4.357958 0.995804 -0.154803


