memory 4 GB
set basis def2-QZVPD
set soscf true
set fail_on_maxiter false
molecule{
	3 1
	La 0.976930 -0.001413 -0.000054
	--
	-1 1
	H -9.493352 -0.368680 0.947369
	H -9.514133 -0.662590 -0.775743
	C -9.167950 0.024082 -0.012463
	C -7.692434 0.035532 -0.012353
	O -6.996846 1.100401 -0.007500
	O -6.997582 -1.034299 -0.007671
	H -9.557905 1.017964 -0.162180
}

energy('MP2/def2-QZVPD')
