%Mem=16GB
%NProc=8
%Chk=la_acetate_000.chk

#MP2/gen int=dkh MaxDisk=100GB

la_acetate_000

	2,1
	La 1.177266 0.024240 -0.004059
	H -2.703145 0.781536 0.906428
	H -2.918406 0.514641 -0.815678
	C -2.191061 0.753374 -0.050257
	C -1.179020 -0.342788 -0.013215
	O 0.191034 0.149226 0.023667
	O -1.289584 -1.492408 -0.035764
	H -1.731646 1.708143 -0.246009

H     0
S    8   1.00
    188.61445                 .00096385
     28.276596                .00749196
      6.4248300               .03759541
      1.8150410               .14339498
       .59106300              .34863630
       .21214900              .43829736
       .07989100              .16510661
       .02796200              .02102287
S    8   1.00
    188.61445                -.0115701
     28.276596               -.0837154
      6.4248300              -.4451663
      1.8150410             -1.146271
       .59106300             2.5031871
       .21214900            -1.582849
       .07989100              .03096569
       .02796200              .30862864
S    8   1.00
    188.61445                -.0212892
     28.276596               -.1095596
      6.4248300             -1.481826
      1.8150410              3.0272963
       .59106300            -3.763086
       .21214900             3.6574131
       .07989100            -2.501237
       .02796200              .89405394
S    8   1.00
    188.61445                -.0013119
     28.276596               -.0103451
      6.4248300              -.0504953
      1.8150410              -.2073855
       .59106300             -.4350885
       .21214900             -.0247297
       .07989100              .32252599
       .02796200              .70727538
S    8   1.00
    188.61445                 .00242240
     28.276596                .02033817
      6.4248300               .08963935
      1.8150410               .44229071
       .59106300              .57571439
       .21214900             -.9802890
       .07989100             -.6721538
       .02796200             1.1417685
S    8   1.00
    188.61445                 .01478099
     28.276596                .09403187
      6.4248300               .53618016
      1.8150410              -.6089639
       .59106300            -1.114889
       .21214900             3.4820812
       .07989100            -3.762539
       .02796200             1.6766932
P    4   1.00
      2.3050000               .11279019
       .80675000              .41850753
       .28236200              .47000773
       .09882700              .18262603
P    4   1.00
      2.3050000             -1.442742
       .80675000             2.3489914
       .28236200            -1.991152
       .09882700              .90505601
P    4   1.00
      2.3050000               .75995011
       .80675000              .16461590
       .28236200            -1.371014
       .09882700             1.0593155
P    4   1.00
      2.3050000              -.2108688
       .80675000             -.5943796
       .28236200              .08968888
       .09882700              .86116340
D    3   1.00
      1.8190000               .27051341
       .72760000              .55101250
       .29104000              .33108664
D    3   1.00
      1.8190000              -.7938035
       .72760000             -.0914252
       .29104000              .86200334
D    3   1.00
      1.8190000              1.3082770
       .72760000            -2.021059
       .29104000             1.2498888
F    1   1.00
      0.970109               1.0
****
O     0
S    14   1.00
 105374.95                   0.00012386
  15679.240                  0.00051201
   3534.5447                 0.00215291
    987.36516                0.00852844
    315.97875                0.03018049
    111.65428                0.09099702
     42.699451               0.21779364
     17.395596               0.36862457
      7.4383090              0.33667073
      3.2228620              0.09657630
      1.2538770              0.00214452
       .49515500             0.00119435
       .19166500             0.00053902
       .06708300             0.00021034
S    14   1.00
 105374.95                  -0.00074282
  15679.240                 -0.00234233
   3534.5447                -0.01591640
    987.36516               -0.02654546
    315.97875               -0.25914159
    111.65428               -0.10283024
     42.699451              -2.13479838
     17.395596               6.05081927
      7.4383090             -7.46850493
      3.2228620              5.73131339
      1.2538770             -3.43918753
       .49515500             1.98094698
       .19166500            -0.92207192
       .06708300             0.26077136
S    14   1.00
 105374.95                  -0.00002815
  15679.240                 -0.00011630
   3534.5447                -0.00049092
    987.36516               -0.00194616
    315.97875               -0.00700530
    111.65428               -0.02167814
     42.699451              -0.05641213
     17.395596              -0.11270530
      7.4383090             -0.15891197
      3.2228620             -0.03355083
      1.2538770              0.35319028
       .49515500             0.55341993
       .19166500             0.23018391
       .06708300             0.01127267
S    14   1.00
 105374.95                   0.00028260
  15679.240                  0.00129918
   3534.5447                 0.00432159
    987.36516                0.02387042
    315.97875                0.05255072
    111.65428                0.29061324
     42.699451               0.20167956
     17.395596               1.51837289
      7.4383090             -5.38029979
      3.2228620              6.65712125
      1.2538770             -5.49075525
       .49515500             3.95898574
       .19166500            -2.26298568
       .06708300             0.79637701
S    14   1.00
 105374.95                   0.00002616
  15679.240                  0.00010748
   3534.5447                 0.00045972
    987.36516                0.00179555
    315.97875                0.00667574
    111.65428                0.02053445
     42.699451               0.05828602
     17.395596               0.12129691
      7.4383090              0.22641475
      3.2228620             -0.04238700
      1.2538770             -1.01045538
       .49515500            -0.15386868
       .19166500             0.99345320
       .06708300             0.18587254
S    14   1.00
 105374.95                  -0.00005058
  15679.240                 -0.00020024
   3534.5447                -0.00091952
    987.36516               -0.00320240
    315.97875               -0.01359974
    111.65428               -0.03392296
     42.699451              -0.11685462
     17.395596              -0.14040275
      7.4383090             -0.47546666
      3.2228620              0.83350096
      1.2538770              1.30186138
       .49515500            -2.48175844
       .19166500             0.81134659
       .06708300             0.58210417
S    14   1.00
 105374.95                   0.00005196
  15679.240                  0.00019612
   3534.5447                 0.00099303
    987.36516                0.00297658
    315.97875                0.01564071
    111.65428                0.03231923
     42.699451               0.16012253
     17.395596               0.15386867
      7.4383090              0.93886300
      3.2228620             -3.16442722
      1.2538770              2.94545392
       .49515500            -0.46724256
       .19166500            -1.59503813
       .06708300             1.34403482
S    14   1.00
 105374.95                  -0.00010763
  15679.240                 -0.00052397
   3534.5447                -0.00154004
    987.36516               -0.00999424
    315.97875               -0.01742170
    111.65428               -0.12514010
     42.699451              -0.05984838
     17.395596              -0.78330815
      7.4383090              0.91900687
      3.2228620              1.50335971
      1.2538770             -4.17166405
       .49515500             5.18802378
       .19166500            -4.10387047
       .06708300             1.75198360
P    9   1.00
    200.00000                0.02945525
     46.533367              -0.02705478
     14.621809               1.72712535
      5.3130640             -3.00927511
      2.1025250              3.08624913
       .85022300            -2.41840603
       .33759700             1.57480283
       .12889200            -0.83583205
       .04511200             0.29255222
P    9   1.00
    200.00000                0.00091730
     46.533367               0.00737714
     14.621809               0.03483515
      5.3130640              0.11443970
      2.1025250              0.25549664
       .85022300             0.37225574
       .33759700             0.33233149
       .12889200             0.14008479
       .04511200             0.02395784
P    9   1.00
    200.00000               -0.00087213
     46.533367              -0.00706424
     14.621809              -0.03330489
      5.3130640             -0.11441275
      2.1025250             -0.29901068
       .85022300            -0.31986054
       .33759700             0.20550900
       .12889200             0.59359268
       .04511200             0.28229027
P    9   1.00
    200.00000               -0.00917182
     46.533367              -0.00978879
     14.621809              -0.53210575
      5.3130640             -0.40505984
      2.1025250              2.13358472
       .85022300            -3.15879340
       .33759700             3.04624588
       .12889200            -2.09941359
       .04511200             0.87380728
P    9   1.00
    200.00000               -0.00195602
     46.533367              -0.02399585
     14.621809              -0.09118427
      5.3130640             -0.52863388
      2.1025250             -0.38198314
       .85022300             1.44198816
       .33759700            -0.67366146
       .12889200            -0.66496950
       .04511200             0.82977107
P    9   1.00
    200.00000                0.00129603
     46.533367               0.01151279
     14.621809               0.05159120
      5.3130640              0.20459407
      2.1025250              0.55019345
       .85022300            -0.14872038
       .33759700            -0.89690085
       .12889200             0.24707597
       .04511200             0.64443405
P    9   1.00
    200.00000                0.00319452
     46.533367               0.03858703
     14.621809               0.17878547
      5.3130640              1.00984499
      2.1025250             -1.47243471
       .85022300             0.20837011
       .33759700             1.29713750
       .12889200            -1.71838884
       .04511200             0.97758318
D    4   1.00
      3.7500000              0.13609758
      1.3125000              0.51401475
       .45937500             0.47407125
       .16078100             0.08166905
D    4   1.00
      3.7500000             -0.39151953
      1.3125000             -0.62262728
       .45937500             0.72160073
       .16078100             0.31870103
D    4   1.00
      3.7500000              0.95199748
      1.3125000             -0.67736624
       .45937500            -0.34608569
       .16078100             0.81524547
D    4   1.00
      3.7500000             -0.92670660
      1.3125000              1.53420070
       .45937500            -1.61221613
       .16078100             1.07889990
F    3   1.00
      2.3500000              0.33460642
       .94000000             0.56136672
       .37600000             0.29572786
F    3   1.00
      2.3500000             -0.83677707
       .94000000             0.10721970
       .37600000             0.72955061
F    3   1.00
      2.3500000              1.04919327
       .94000000            -1.65994322
       .37600000             1.13721800
G    2   1.00
      1.175000               0.89524901
      0.470000               0.16664235
G    2   1.00
      1.175000              -0.82800067
      0.470000               1.20800920
****
La     0
S    24   1.00
44334794.2                   0.00031377
8123190.06                   0.00066370
1933165.17                   0.00174886
 530660.675                  0.00397771
 162993.864                  0.00895263
  54741.6813                 0.01955723
  19800.6504                 0.04264333
   7611.63314                0.09182013
   3073.74453                0.18706898
   1293.69218                0.31722470
    564.232150               0.34820276
    251.407624               0.15624114
    115.669634               0.00807397
     55.0689832              0.00337411
     26.6987416             -0.00250157
     13.1632213              0.00166939
      6.41189459            -0.00106864
      3.07135819             0.00061237
      1.42250633            -0.00029736
      0.56974097             0.00013663
      0.22988546            -0.00007394
      0.09195418             0.00003928
      0.03678167            -0.00001814
      0.01471267             0.00000520
S    24   1.00
44334794.2                  -0.00011058
8123190.06                  -0.00023421
1933165.17                  -0.00061841
 530660.675                 -0.00141198
 162993.864                 -0.00319986
  54741.6813                -0.00707111
  19800.6504                -0.01574656
   7611.63314               -0.03518053
   3073.74453               -0.07713251
   1293.69218               -0.15087842
    564.232150              -0.21488748
    251.407624              -0.07024580
    115.669634               0.43018264
     55.0689832              0.57805391
     26.6987416              0.15562040
     13.1632213              0.00603677
      6.41189459            -0.00070474
      3.07135819             0.00041513
      1.42250633            -0.00037949
      0.56974097             0.00019019
      0.22988546            -0.00009902
      0.09195418             0.00005417
      0.03678167            -0.00002537
      0.01471267             0.00000721
S    24   1.00
44334794.2                   0.00005023
8123190.06                   0.00010641
1933165.17                   0.00028105
 530660.675                  0.00064208
 162993.864                  0.00145660
  54741.6813                 0.00322435
  19800.6504                 0.00720329
   7611.63314                0.01618427
   3073.74453                0.03589242
   1293.69218                0.07186356
    564.232150               0.10714956
    251.407624               0.03447083
    115.669634              -0.31910016
     55.0689832             -0.61744588
     26.6987416              0.03404689
     13.1632213              0.89551779
      6.41189459             0.35801452
      3.07135819             0.00630050
      1.42250633             0.00521573
      0.56974097            -0.00203316
      0.22988546             0.00094664
      0.09195418            -0.00051423
      0.03678167             0.00023896
      0.01471267            -0.00006779
S    24   1.00
44334794.2                  -0.00002360
8123190.06                  -0.00004999
1933165.17                  -0.00013202
 530660.675                 -0.00030171
 162993.864                 -0.00068437
  54741.6813                -0.00151647
  19800.6504                -0.00338647
   7611.63314               -0.00763152
   3073.74453               -0.01692275
   1293.69218               -0.03419322
    564.232150              -0.05114499
    251.407624              -0.01722511
    115.669634               0.16940810
     55.0689832              0.34736810
     26.6987416             -0.01745857
     13.1632213             -0.94932495
      6.41189459            -0.40034574
      3.07135819             1.04335501
      1.42250633             0.49396098
      0.56974097            -0.00327619
      0.22988546             0.00865999
      0.09195418            -0.00434703
      0.03678167             0.00203930
      0.01471267            -0.00057880
S    24   1.00
44334794.2                   0.00003832
8123190.06                   0.00008203
1933165.17                   0.00021263
 530660.675                  0.00050260
 162993.864                  0.00107174
  54741.6813                 0.00264626
  19800.6504                 0.00491728
   7611.63314                0.01459302
   3073.74453                0.02125287
   1293.69218                0.07687583
    564.232150               0.02969159
    251.407624               0.17807033
    115.669634              -0.77226363
     55.0689832              0.38837572
     26.6987416             -1.93310576
     13.1632213              8.50930985
      6.41189459           -14.89523981
      3.07135819            14.89203233
      1.42250633            -9.88255221
      0.56974097             5.43312582
      0.22988546            -3.25552207
      0.09195418             1.87965357
      0.03678167            -0.92848608
      0.01471267             0.28000316
S    24   1.00
44334794.2                   0.00000957
8123190.06                   0.00002027
1933165.17                   0.00005355
 530660.675                  0.00012236
 162993.864                  0.00027762
  54741.6813                 0.00061496
  19800.6504                 0.00137448
   7611.63314                0.00309488
   3073.74453                0.00687770
   1293.69218                0.01387991
    564.232150               0.02089424
    251.407624               0.00686134
    115.669634              -0.06997796
     55.0689832             -0.14837625
     26.6987416              0.01055437
     13.1632213              0.45665105
      6.41189459             0.21522650
      3.07135819            -0.79600636
      1.42250633            -0.59831081
      0.56974097             0.95949384
      0.22988546             0.56060973
      0.09195418            -0.03744918
      0.03678167             0.02257005
      0.01471267            -0.00635218
S    24   1.00
44334794.2                  -0.00001737
8123190.06                  -0.00003674
1933165.17                  -0.00009736
 530660.675                 -0.00022118
 162993.864                 -0.00050734
  54741.6813                -0.00110274
  19800.6504                -0.00254550
   7611.63314               -0.00545816
   3073.74453               -0.01305134
   1293.69218               -0.02374090
    564.232150              -0.04298707
    251.407624               0.00130561
    115.669634               0.10070478
     55.0689832              0.38402934
     26.6987416             -0.30546172
     13.1632213             -0.63760119
      6.41189459            -1.00344843
      3.07135819             5.85424688
      1.42250633            -8.84158006
      0.56974097             8.75289306
      0.22988546            -7.65617977
      0.09195418             5.74804680
      0.03678167            -3.39373962
      0.01471267             1.14432939
S    24   1.00
44334794.2                  -0.00000281
8123190.06                  -0.00000596
1933165.17                  -0.00001575
 530660.675                 -0.00003598
 162993.864                 -0.00008167
  54741.6813                -0.00018082
  19800.6504                -0.00040448
   7611.63314               -0.00090968
   3073.74453               -0.00202534
   1293.69218               -0.00407744
    564.232150              -0.00616799
    251.407624              -0.00196841
    115.669634               0.02052118
     55.0689832              0.04430198
     26.6987416             -0.00402561
     13.1632213             -0.13630255
      6.41189459            -0.06984784
      3.07135819             0.26648645
      1.42250633             0.20281415
      0.56974097            -0.41679836
      0.22988546            -0.51606312
      0.09195418             0.38113562
      0.03678167             0.75024611
      0.01471267             0.20084611
S    24   1.00
44334794.2                  -0.00001074
8123190.06                  -0.00002273
1933165.17                  -0.00006014
 530660.675                 -0.00013695
 162993.864                 -0.00031276
  54741.6813                -0.00068493
  19800.6504                -0.00156049
   7611.63314               -0.00341183
   3073.74453               -0.00791820
   1293.69218               -0.01500490
    564.232150              -0.02521534
    251.407624              -0.00287197
    115.669634               0.06698493
     55.0689832              0.20410481
     26.6987416             -0.09615850
     13.1632213             -0.40889625
      6.41189459            -0.53264495
      3.07135819             1.87090400
      1.42250633            -0.30787814
      0.56974097            -2.83825811
      0.22988546             3.08174474
      0.09195418            -0.24827364
      0.03678167            -1.70134936
      0.01471267             1.12603899
S    24   1.00
44334794.2                   0.00001082
8123190.06                   0.00002285
1933165.17                   0.00006070
 530660.675                  0.00013731
 162993.864                  0.00031743
  54741.6813                 0.00068024
  19800.6504                 0.00160643
   7611.63314                0.00332029
   3073.74453                0.00835354
   1293.69218                0.01401424
    564.232150               0.02870149
    251.407624              -0.00629652
    115.669634              -0.04448061
     55.0689832             -0.27264537
     26.6987416              0.25733095
     13.1632213              0.14884015
      6.41189459             1.09321826
      3.07135819            -3.50289829
      1.42250633             3.36409840
      0.56974097            -0.24370050
      0.22988546            -3.35203575
      0.09195418             5.47515453
      0.03678167            -4.72050752
      0.01471267             1.93851552
S    24   1.00
44334794.2                   0.00000328
8123190.06                   0.00000694
1933165.17                   0.00001834
 530660.675                  0.00004189
 162993.864                  0.00009510
  54741.6813                 0.00021043
  19800.6504                 0.00047121
   7611.63314                0.00105809
   3073.74453                0.00236144
   1293.69218                0.00473820
    564.232150               0.00721251
    251.407624               0.00221007
    115.669634              -0.02373776
     55.0689832             -0.05233512
     26.6987416              0.00622042
     13.1632213              0.15885950
      6.41189459             0.08512426
      3.07135819            -0.33595333
      1.42250633            -0.23259845
      0.56974097             0.65461596
      0.22988546             0.48626544
      0.09195418            -1.21616821
      0.03678167            -0.68178152
      0.01471267             1.48439890
P    21   1.00
3947501.17                   0.00002154
 585217.192                  0.00007819
 123114.084                  0.00027525
  32036.7170                 0.00096027
   9868.88138                0.00336498
   3496.48341                0.01157863
   1383.57034                0.03750988
    595.556178               0.10623878
    272.998837               0.23826155
    130.903043               0.36964621
     64.7404875              0.31498643
     32.0819227              0.10390050
     16.2407083              0.00530481
      8.31512574             0.00133604
      4.04845718            -0.00076611
      1.96206638             0.00026491
      0.82537179            -0.00013212
      0.33014872             0.00006417
      0.13205949            -0.00003327
      0.05282379             0.00001570
      0.02112952            -0.00000499
P    21   1.00
3947501.17                  -0.00001031
 585217.192                 -0.00003746
 123114.084                 -0.00013207
  32036.7170                -0.00046217
   9868.88138               -0.00162654
   3496.48341               -0.00564648
   1383.57034               -0.01857066
    595.556178              -0.05427593
    272.998837              -0.12758901
    130.903043              -0.21050287
     64.7404875             -0.14188783
     32.0819227              0.23377007
     16.2407083              0.56190448
      8.31512574             0.31469007
      4.04845718             0.03969978
      1.96206638             0.00035864
      0.82537179             0.00022604
      0.33014872            -0.00011050
      0.13205949             0.00004702
      0.05282379            -0.00002047
      0.02112952             0.00000678
P    21   1.00
3947501.17                   0.00000474
 585217.192                  0.00001725
 123114.084                  0.00006080
  32036.7170                 0.00021313
   9868.88138                0.00074933
   3496.48341                0.00261302
   1383.57034                0.00859268
    595.556178               0.02538320
    272.998837               0.05998224
    130.903043               0.10127832
     64.7404875              0.06083457
     32.0819227             -0.15774502
     16.2407083             -0.42571314
      8.31512574            -0.12810230
      4.04845718             0.58041247
      1.96206638             0.55127275
      0.82537179             0.08045042
      0.33014872            -0.00510380
      0.13205949             0.00259515
      0.05282379            -0.00119835
      0.02112952             0.00037047
P    21   1.00
3947501.17                  -0.00000990
 585217.192                 -0.00003808
 123114.084                 -0.00011677
  32036.7170                -0.00052785
   9868.88138               -0.00120787
   3496.48341               -0.00734331
   1383.57034               -0.01182323
    595.556178              -0.07976219
    272.998837              -0.06338290
    130.903043              -0.41550264
     64.7404875              0.44514196
     32.0819227             -0.42454013
     16.2407083              3.47037337
      8.31512574            -7.29157852
      4.04845718             7.72958159
      1.96206638            -5.19482960
      0.82537179             2.60959474
      0.33014872            -1.39655686
      0.13205949             0.79726533
      0.05282379            -0.41488724
      0.02112952             0.14243797
P    21   1.00
3947501.17                  -0.00000177
 585217.192                 -0.00000643
 123114.084                 -0.00002266
  32036.7170                -0.00007960
   9868.88138               -0.00027898
   3496.48341               -0.00097772
   1383.57034               -0.00319875
    595.556178              -0.00952664
    272.998837              -0.02236757
    130.903043              -0.03837181
     64.7404875             -0.02163651
     32.0819227              0.06165999
     16.2407083              0.17930663
      8.31512574             0.03089755
      4.04845718            -0.30920325
      1.96206638            -0.37645801
      0.82537179             0.41578491
      0.33014872             0.70795950
      0.13205949             0.11239667
      0.05282379             0.01143812
      0.02112952            -0.00303396
P    21   1.00
3947501.17                   0.00000453
 585217.192                  0.00001610
 123114.084                  0.00005982
  32036.7170                 0.00018927
   9868.88138                0.00078115
   3496.48341                0.00218345
   1383.57034                0.00941319
    595.556178               0.02028331
    272.998837               0.07123441
    130.903043               0.06211826
     64.7404875              0.13867982
     32.0819227             -0.42931902
     16.2407083             -0.03591605
      8.31512574            -0.74010208
      4.04845718             3.67560913
      1.96206638            -5.29974930
      0.82537179             4.58990071
      0.33014872            -3.57778469
      0.13205949             2.68274497
      0.05282379            -1.69103299
      0.02112952             0.65958104
P    21   1.00
3947501.17                  -0.00000169
 585217.192                 -0.00000618
 123114.084                 -0.00002162
  32036.7170                -0.00007683
   9868.88138               -0.00026449
   3496.48341               -0.00094998
   1383.57034               -0.00301676
    595.556178              -0.00931342
    272.998837              -0.02093567
    130.903043              -0.03834501
     64.7404875             -0.01693372
     32.0819227              0.05229225
     16.2407083              0.19809592
      8.31512574            -0.01757126
      4.04845718            -0.27308364
      1.96206638            -0.54543400
      0.82537179             1.28061014
      0.33014872            -0.11874027
      0.13205949            -1.14730819
      0.05282379             0.26721022
      0.02112952             0.57729876
P    21   1.00
3947501.17                   0.00000058
 585217.192                  0.00000210
 123114.084                  0.00000738
  32036.7170                 0.00002593
   9868.88138                0.00009095
   3496.48341                0.00031842
   1383.57034                0.00104318
    595.556178               0.00310271
    272.998837               0.00730038
    130.903043               0.01249367
     64.7404875              0.00709251
     32.0819227             -0.02042417
     16.2407083             -0.05888489
      8.31512574            -0.01010907
      4.04845718             0.10738439
      1.96206638             0.13023925
      0.82537179            -0.17596305
      0.33014872            -0.37328944
      0.13205949             0.12828083
      0.05282379             0.73640046
      0.02112952             0.29364503
P    21   1.00
3947501.17                  -0.00000275
 585217.192                 -0.00000980
 123114.084                 -0.00003639
  32036.7170                -0.00011528
   9868.88138               -0.00047429
   3496.48341               -0.00132950
   1383.57034               -0.00570042
    595.556178              -0.01229876
    272.998837              -0.04286211
    130.903043              -0.03799797