%Mem=16GB
%NProc=8
%Chk=la_acetate_bidentate_007_cp.chk

#p MP2/Def2QZVP wB97XD nosymm MaxDisk=1000GB Counterpoise=2

la_acetate_bidentate_007

	2,1 3,1 -1,1
	La(Fragment=1) 0.976930 -0.001413 -0.000054
	H(Fragment=2) -3.893409 -0.392544 0.955314
	H(Fragment=2) -3.914190 -0.686454 -0.767798
	C(Fragment=2) -3.568007 0.000218 -0.004518
	C(Fragment=2) -2.092491 0.011668 -0.004408
	O(Fragment=2) -1.396903 1.076537 0.000445
	O(Fragment=2) -1.397639 -1.058163 0.000274
	H(Fragment=2) -3.957962 0.994100 -0.154235


