!MP2 ZORA-DEF2-TZVP CCSD(T)
* xyz 2 1
	La 1.177266 0.024240 -0.004059 newgto "SARC-ZORA-TZVP" end
	H -3.496489 0.882077 0.928731
	H -3.711750 0.615182 -0.793375
	C -2.984405 0.853915 -0.027954
	C -1.972364 -0.242247 0.009088
	O -0.602310 0.249767 0.045970
	O -2.082928 -1.391867 -0.013461
	H -2.524990 1.808684 -0.223706
*