%Mem=16GB
%NProc=8
%Chk=la_acetate_bidentate_001.chk

#MP2/Def2QZVP GUESS=READ SCF(maxcycle=100) Polar Density=MP2 MaxDisk=100GB

la_acetate_bidentate_001

	2,1
	La 0.976930 -0.001413 -0.000054
	H -2.693421 -0.397658 0.957016
	H -2.714202 -0.691568 -0.766096
	C -2.368019 -0.004896 -0.002816
	C -0.892503 0.006554 -0.002706
	O -0.196915 1.071423 0.002147
	O -0.197651 -1.063277 0.001976
	H -2.757974 0.988986 -0.152533


