%Mem=16GB
%NProc=8
%Chk=la_acetate_bidentate_010_cp.chk

#p MP2/Def2QZVP wB97XD nosymm MaxDisk=1000GB Counterpoise=2

la_acetate_bidentate_010

	2,1 3,1 -1,1
	La(Fragment=1) 0.976930 -0.001413 -0.000054
	H(Fragment=2) -4.493403 -0.389987 0.954462
	H(Fragment=2) -4.514184 -0.683897 -0.768650
	C(Fragment=2) -4.168001 0.002775 -0.005370
	C(Fragment=2) -2.692485 0.014225 -0.005260
	O(Fragment=2) -1.996897 1.079094 -0.000407
	O(Fragment=2) -1.997633 -1.055606 -0.000578
	H(Fragment=2) -4.557956 0.996657 -0.155087


