%Mem=16GB
%NProc=8
%Chk=la_acetate_bidentate_009.chk

#MP2/Def2QZVP GUESS=READ SCF(maxcycle=100) Polar Density=MP2 MaxDisk=100GB

la_acetate_bidentate_009

	2,1
	La 0.976930 -0.001413 -0.000054
	H -4.293405 -0.390840 0.954746
	H -4.314186 -0.684750 -0.768366
	C -3.968003 0.001922 -0.005086
	C -2.492487 0.013372 -0.004976
	O -1.796899 1.078241 -0.000123
	O -1.797635 -1.056459 -0.000294
	H -4.357958 0.995804 -0.154803


