memory 4 GB
set basis def2-TZVPD
molecule{
	3 1
	La 0.984733 0.024021 -0.046567
	--
	0 1
	H -1.834807 1.266479 0.118494
	O -3.741426 -1.185969 -0.551344
	H -1.566105 -2.379542 0.027667
	H -0.642763 -0.982175 -0.571213
	H -3.507254 1.272825 -0.368954
	C -1.431388 -1.297931 0.117145
	H -1.143298 -1.061821 1.145111
	C -2.716382 -0.601769 -0.225303
	N -2.665355 0.757407 -0.147350
}

energy('MP2/def2-[TQ]ZVPD')
