memory 4 GB
set basis def2-TZVPD
molecule{
	3 1
	La -1.266293 -0.011397 -0.000010
	--
	0 1
	H 3.906412 -1.304252 -0.877876
	C 3.272634 -1.226621 0.000002
	N 3.261954 1.191485 -0.000014
	H 3.905239 -1.304835 0.878686
	C 2.597630 0.106086 0.000045
	H 2.841236 2.099583 0.000089
	H 4.266543 1.169114 -0.000147
	H 2.558124 -2.034179 -0.000736
	O 1.274798 0.175430 0.000152
}

energy('MP2/def2-[TQ]ZVPD')
