%Mem=16GB
%NProc=8
%Chk=la_acetate_bidentate_015_cp.chk

#p MP2/Def2QZVP wB97XD nosymm MaxDisk=1000GB Counterpoise=2

la_acetate_bidentate_015

	2,1 3,1 -1,1
	La(Fragment=1) 0.976930 -0.001413 -0.000054
	H(Fragment=2) -6.993378 -0.379334 0.950916
	H(Fragment=2) -7.014159 -0.673244 -0.772196
	C(Fragment=2) -6.667976 0.013428 -0.008916
	C(Fragment=2) -5.192460 0.024878 -0.008806
	O(Fragment=2) -4.496872 1.089747 -0.003953
	O(Fragment=2) -4.497608 -1.044953 -0.004124
	H(Fragment=2) -7.057931 1.007310 -0.158633


