memory 4 GB
set basis def2-TZVPD
molecule{
	3 1
	La 0.984733 0.024021 -0.046567
	--
	0 1
	H -0.752357 -1.876444 0.289990
	H 0.170985 -0.479077 -0.308890
	C -1.902634 -0.098671 0.037020
	N -1.851607 1.260505 0.114973
	C -0.617640 -0.794833 0.379468
	H -2.693506 1.775923 -0.106631
	H -1.021059 1.769577 0.380817
	H -0.329550 -0.558723 1.407434
	O -2.927678 -0.682871 -0.289021
}

energy('MP2/def2-[TQ]ZVPD')
