!MP2 ZORA-DEF2-TZVP def2-TZVP/C DLPNO-CCSD(T)
* xyz -1 1
	La : 0.976930 -0.001413 -0.000054 newgto "SARC-ZORA-TZVP" end
	H -3.140935 -0.395837 0.955706
	H -3.161716 -0.689747 -0.767406
	C -2.815533 -0.003075 -0.004126
	C -1.340017 0.008375 -0.004016
	O -0.644429 1.073244 0.000837
	O -0.645165 -1.061456 0.000666
	H -3.205488 0.990807 -0.153843
*