memory 200 GB
set basis def2-QZVPD
set soscf true
set fail_on_maxiter false
molecule{
	3 1
	La 0.976930 -0.001413 -0.000054
	--
	-1 1
	H -8.993358 -0.370810 0.948078
	H -9.014139 -0.664720 -0.775034
	C -8.667956 0.021952 -0.011754
	C -7.192440 0.033402 -0.011644
	O -6.496852 1.098271 -0.006791
	O -6.497588 -1.036429 -0.006962
	H -9.057911 1.015834 -0.161471
}

energy(cbs, corl_wfn='mp2',corl_basis='def2-[TQ]ZVPD', delta_wfn='ccsd(t)', delta_basis='def2-[DT]ZVPD')
