!MP2 ZORA-DEF2-TZVP CCSD(T)
* xyz 2 1
	La 1.177266 0.024240 -0.004059 newgto "SARC-ZORA-TZVP" end
	H -4.488169 1.007753 0.956610
	H -4.703430 0.740858 -0.765496
	C -3.976085 0.979591 -0.000075
	C -2.964044 -0.116571 0.036967
	O -1.593990 0.375443 0.073849
	O -3.074608 -1.266191 0.014418
	H -3.516670 1.934360 -0.195827
*