%Mem=16GB
%NProc=8
%Chk=la_acetate_bidentate_002_cp.chk

#p MP2/Def2QZVP wB97XD nosymm MaxDisk=1000GB Counterpoise=2

la_acetate_bidentate_002

	2,1 3,1 -1,1
	La(Fragment=1) 0.976930 -0.001413 -0.000054
	H(Fragment=2) -2.893419 -0.396806 0.956732
	H(Fragment=2) -2.914200 -0.690716 -0.766380
	C(Fragment=2) -2.568017 -0.004044 -0.003100
	C(Fragment=2) -1.092501 0.007406 -0.002990
	O(Fragment=2) -0.396913 1.072275 0.001863
	O(Fragment=2) -0.397649 -1.062425 0.001692
	H(Fragment=2) -2.957972 0.989838 -0.152817


