memory 50 GB
set basis def2-QZVPD
set soscf true
set fail_on_maxiter false
molecule{
	3 1
	La 1.177266 0.024240 -0.004059
	--
	-1 1
	H -3.198985 0.844374 0.920367
	H -3.414246 0.577479 -0.801739
	C -2.686901 0.816212 -0.036318
	C -1.674860 -0.279950 0.000724
	O -0.304806 0.212064 0.037606
	O -1.785424 -1.429570 -0.021825
	H -2.227486 1.770981 -0.232070
}

energy(cbs, corl_wfn='mp2',corl_basis='def2-[TQ]ZVPD', delta_wfn='ccsd(t)', delta_basis='def2-[DT]ZVPD')
