%Mem=16GB
%NProc=8
%Chk=la_acetate_bidentate_003_cp.chk

#p MP2/Def2QZVP wB97XD nosymm MaxDisk=1000GB Counterpoise=2

la_acetate_bidentate_003

	2,1 3,1 -1,1
	La(Fragment=1) 0.976930 -0.001413 -0.000054
	H(Fragment=2) -3.093417 -0.395954 0.956448
	H(Fragment=2) -3.114198 -0.689864 -0.766664
	C(Fragment=2) -2.768015 -0.003192 -0.003384
	C(Fragment=2) -1.292499 0.008258 -0.003274
	O(Fragment=2) -0.596911 1.073127 0.001579
	O(Fragment=2) -0.597647 -1.061573 0.001408
	H(Fragment=2) -3.157970 0.990690 -0.153101


