%Mem=16GB
%NProc=8
%Chk=la_acetate_bidentate_001_cp.chk

#p MP2/Def2QZVP wB97XD nosymm MaxDisk=1000GB Counterpoise=2

la_acetate_bidentate_001

	2,1 3,1 -1,1
	La(Fragment=1) 0.976930 -0.001413 -0.000054
	H(Fragment=2) -2.693421 -0.397658 0.957016
	H(Fragment=2) -2.714202 -0.691568 -0.766096
	C(Fragment=2) -2.368019 -0.004896 -0.002816
	C(Fragment=2) -0.892503 0.006554 -0.002706
	O(Fragment=2) -0.196915 1.071423 0.002147
	O(Fragment=2) -0.197651 -1.063277 0.001976
	H(Fragment=2) -2.757974 0.988986 -0.152533


