%Mem=16GB
%NProc=8
%Chk=la_water_019.chk

#MP2/Def2QZVP GUESS=READ SCF(maxcycle=100) Polar Density=MP2 MaxDisk=100GB

la_water_019

	3,1
	La -0.038392 -0.277582 0.000000
	O 1.036924 7.523313 0.000000
	H 1.128235 8.113215 0.761699
	H 1.128235 8.113215 -0.761699


