%Mem=16GB
%NProc=8
%Chk=la_water_005.chk

#MP2/Def2QZVP GUESS=READ SCF(maxcycle=100) Polar Density=MP2 MaxDisk=100GB

la_water_005

	3,1
	La -0.038392 -0.277582 0.000000
	O 0.285877 2.074833 0.000000
	H 0.377188 2.664736 0.761699
	H 0.377188 2.664736 -0.761699


