!MP2 ZORA-DEF2-TZVP CCSD(T)
* xyz 3 1
	La -0.031658 -0.226996 0.000000 newgto "SARC-ZORA-TZVP" end
	O 0.968592 6.992197 -0.000000
	H 1.061788 7.609791 0.778197
	H 1.061788 7.609791 -0.778197
*