%Mem=16GB
%NProc=8
%Chk=la_water_013.chk

#MP2/Def2QZVP GUESS=READ SCF(maxcycle=100) Polar Density=MP2 MaxDisk=100GB

la_water_013

	3,1
	La -0.038392 -0.277582 0.000000
	O 0.627262 4.551415 0.000000
	H 0.718573 5.141317 0.761699
	H 0.718573 5.141317 -0.761699


