memory 4 GB
set basis def2-TZVPD
molecule{
	3 1
	LA -0.038392 -0.277582 0.000000
	--
	0 1
	H 0.442042 3.135219 -0.761699
	O 0.350731 2.545317 0.000000
	H 0.442042 3.135219 0.761699
}

energy('MP2/def2-[TQ]ZVPD')
