memory 4 GB
set basis def2-TZVPD
molecule{
	3 1
	La -0.014627 -0.453433 0.000000
	--
	0 1
	O -0.014627 4.016567 0.000000
	H 0.475373 4.306567 0.760000
	H 0.475373 4.306567 -0.760000
}

energy('MP2/def2-[TQ]ZVPD')
