%Mem=16GB
%NProc=8
%Chk=la_water_020.chk

#MP2/Def2QZVP GUESS=READ SCF(maxcycle=100) Polar Density=MP2 MaxDisk=100GB

la_water_020

	3,1
	La -0.038392 -0.277582 0.000000
	O 1.105201 8.018629 0.000000
	H 1.196512 8.608531 0.761699
	H 1.196512 8.608531 -0.761699


