!MP2 ZORA-DEF2-TZVP def2-TZVP/C DLPNO-CCSD(T)
* xyz 0 1
	La : -0.031658 -0.226996 0.000000 newgto "SARC-ZORA-TZVP" end
	O 0.296100 2.138564 -0.000000
	H 0.389296 2.756158 0.778197
	H 0.389296 2.756158 -0.778197
*