!MP2 ZORA-DEF2-TZVP CCSD(T)
* xyz 3 1
	La -0.031658 -0.226996 0.000000newgto"SARC-ZORA-TZVP"
	O 0.488241 3.525317 -0.000000
	H 0.581436 4.142910 0.778197
	H 0.581436 4.142910 -0.778197
*