%Mem=16GB
%NProc=8
%Chk=la_water_018.chk

#MP2/Def2QZVP GUESS=READ SCF(maxcycle=100) Polar Density=MP2 MaxDisk=100GB

la_water_018

	3,1
	La -0.038392 -0.277582 0.000000
	O 0.968647 7.027997 0.000000
	H 1.059958 7.617899 0.761699
	H 1.059958 7.617899 -0.761699


