memory 200 GB
set {
	basis def2-QZVPD
	soscf true
	fail_on_maxiter false
	relativistic dkh
	dkh_order 2
}

molecule{
	3 1
	La -0.038392 -0.277582 0.000000
	--
	0 1
	O 0.313188 2.272960 0.000000
	H 0.404499 2.862862 0.761699
	H 0.404499 2.862862 -0.761699
}

energy(cbs, corl_wfn='mp2',corl_basis='def2-[TQ]ZVPD', delta_wfn='ccsd(t)', delta_basis='def2-[DT]ZVPD')
