!MP2 ZORA-DEF2-TZVP CCSD(T)
* xyz 3 1
	La -0.031658 -0.226996 0.000000newgto"SARC-ZORA-TZVP"
	O 0.556863 4.020585 -0.000000
	H 0.650058 4.638179 0.778197
	H 0.650058 4.638179 -0.778197
*