!MP2 ZORA-DEF2-TZVP CCSD(T)
* xyz 3 1
	La -0.031658 -0.226996 0.000000newgto"SARC-ZORA-TZVP"
	O 1.037214 7.487466 -0.000000
	H 1.130409 8.105060 0.778197
	H 1.130409 8.105060 -0.778197
*