!MP2 ZORA-DEF2-TZVP CCSD(T)
* xyz 3 1
	La -0.031658 -0.226996 0.000000newgto"SARC-ZORA-TZVP"
	O 0.392171 2.831940 -0.000000
	H 0.485366 3.449534 0.778197
	H 0.485366 3.449534 -0.778197
*