!MP2 ZORA-DEF2-TZVP CCSD(T)
* xyz 3 1
	La -0.031658 -0.226996 0.000000 newgto "SARC-ZORA-TZVP" end
	O 0.227479 1.643296 -0.000000
	H 0.320674 2.260889 0.778197
	H 0.320674 2.260889 -0.778197
*