memory 4 GB
set basis def2-QZVPD
set soscf true
set fail_on_maxiter false
molecule{
	3 1
	La -0.038392 -0.277582 0.000000
	--
	0 1
	O 0.176634 1.282327 0.000000
	H 0.267945 1.872229 0.761699
	H 0.267945 1.872229 -0.761699
}

energy('MP2/def2-QZVPD')
