!MP2 ZORA-DEF2-TZVP def2-TZVP/C DLPNO-CCSD(T)
* xyz 0 1
	La : -0.031658 -0.226996 0.000000 newgto "SARC-ZORA-TZVP" end
	O 0.213755 1.544242 -0.000000
	H 0.306950 2.161836 0.778197
	H 0.306950 2.161836 -0.778197
*