%Mem=16GB
%NProc=8
%Chk=la_water_012.chk

#MP2/Def2SVP SCF(maxcycle=100) Polar Density=MP2 MaxDisk=100GB

la_water_012

	3,1
	La -0.038392 -0.277582 0.000000
	O 0.558985 4.056099 0.000000
	H 0.650296 4.646001 0.761699
	H 0.650296 4.646001 -0.761699


