%Mem=16GB
%NProc=8
%Chk=la_water_002.chk

#MP2/Def2QZVP GUESS=READ SCF(maxcycle=100) Polar Density=MP2 MaxDisk=100GB

la_water_002

	3,1
	La -0.038392 -0.277582 0.000000
	O 0.203945 1.480454 0.000000
	H 0.295256 2.070356 0.761699
	H 0.295256 2.070356 -0.761699


