memory 4 GB
set basis def2-TZVPD
molecule{
	3 1
	La -0.038392 -0.277582 0.000000
	--
	0 1
	O 0.318304 2.310075 0.000000
	H 0.409615 2.899977 0.761699
	H 0.409615 2.899977 -0.761699
}

energy('MP2/def2-[TQ]ZVPD')
