!MP2 ZORA-DEF2-TZVP CCSD(T)
* xyz 3 1
	La -0.031658 -0.226996 0.000000 newgto "SARC-ZORA-TZVP" end
	O 0.158857 1.148027 -0.000000
	H 0.252053 1.765621 0.778197
	H 0.252053 1.765621 -0.778197
*