memory 4 GB
set basis def2-TZVPD
molecule{
	3 1
	LA -0.038392 -0.277582 0.000000
	--
	0 1
	O 0.383158 2.780558 0.000000
	H 0.474469 3.370460 0.761699
	H 0.474469 3.370460 -0.761699
}

energy('MP2/def2-[TQ]ZVPD')
