!MP2 ZORA-DEF2-TZVP def2-TZVP/C DLPNO-CCSD(T)
* xyz 0 1
	La : -0.031658 -0.226996 0.000000 newgto "SARC-ZORA-TZVP" end
	O 1.037214 7.487466 -0.000000
	H 1.130409 8.105060 0.778197
	H 1.130409 8.105060 -0.778197
*