memory 4 GB
set basis def2-TZVPD
molecule{
	3 1
	La -0.038392 -0.277582 0.000000
	--
	0 1
	O 0.253450 1.839592 0.000000
	H 0.344762 2.429494 0.761699
	H 0.344762 2.429494 -0.761699
}

energy('MP2/def2-[TQ]ZVPD')
