memory 4 GB
set basis def2-TZVPD
set soscf true
set fail_on_maxiter false
molecule{
	3 1
	La -0.038392 -0.277582 0.000000
	--
	0 1
	O 0.627262 4.551415 0.000000
	H 0.718573 5.141317 0.761699
	H 0.718573 5.141317 -0.761699
}

energy('MP2/def2-[TQ]ZVPD')
