%Mem=16GB
%NProc=8
%Chk=la_water_004.chk

#MP2/Def2QZVP GUESS=READ SCF(maxcycle=100) Polar Density=MP2 MaxDisk=100GB

la_water_004

	3,1
	La -0.038392 -0.277582 0.000000
	O 0.258567 1.876707 0.000000
	H 0.349878 2.466609 0.761699
	H 0.349878 2.466609 -0.761699


