!MP2 ZORA-DEF2-TZVP CCSD(T)
* xyz 3 1
	La -0.031658 -0.226996 0.000000newgto"SARC-ZORA-TZVP"
	O 0.186306 1.346134 -0.000000
	H 0.279501 1.963728 0.778197
	H 0.279501 1.963728 -0.778197
*