%Mem=16GB
%NProc=8
%Chk=la_water_010.chk

#MP2/Def2SVP SCF(maxcycle=100) Polar Density=MP2 MaxDisk=100GB

la_water_010

	3,1
	La -0.038392 -0.277582 0.000000
	O 0.422431 3.065466 0.000000
	H 0.513742 3.655368 0.761699
	H 0.513742 3.655368 -0.761699


