!MP2 ZORA-DEF2-TZVP CCSD(T)
* xyz 3 1
	La -0.031658 -0.226996 0.000000newgto"SARC-ZORA-TZVP"
	O 0.694106 5.011123 -0.000000
	H 0.787301 5.628717 0.778197
	H 0.787301 5.628717 -0.778197
*