%Mem=16GB
%NProc=8
%Chk=la_water_009_cp.chk

#p MP2/Def2QZVP wB97XD nosymm MaxDisk=1000GB Counterpoise=2

la_water_009

	3,1 3,1 0,1
	La(Fragment=1) -0.038392 -0.277582 0.000000
	O(Fragment=2) 0.395120 2.867340 0.000000
	H(Fragment=2) 0.486432 3.457242 0.761699
	H(Fragment=2) 0.486432 3.457242 -0.761699


