!MP2 ZORA-DEF2-TZVP CCSD(T)
* xyz 3 1
	La -0.031658 -0.226996 0.000000 newgto "SARC-ZORA-TZVP" end
	O 1.105836 7.982735 -0.000000
	H 1.199031 8.600329 0.778197
	H 1.199031 8.600329 -0.778197
*