memory 4 GB
set basis def2-TZVPD
set soscf true
set fail_on_maxiter false
molecule{
	3 1
	La -0.038392 -0.277582 0.000000
	--
	0 1
	O 0.258567 1.876707 0.000000
	H 0.349878 2.466609 0.761699
	H 0.349878 2.466609 -0.761699
}

energy('MP2/def2-[TQ]ZVPD')
