memory 4 GB
set basis def2-TZVPD
molecule{
	3 1
	LA -0.038392 -0.277582 0.000000
	--
	0 1
	H 0.539323 3.840943 0.761699
	H 0.539323 3.840943 -0.761699
	O 0.448012 3.251041 0.000000
}

energy('MP2/def2-[TQ]ZVPD')
