memory 4 GB
set basis def2-TZVPD
molecule{
	3 1
	La -0.038392 -0.277582 0.000000
	--
	0 1
	O 0.415585 3.015800 0.000000
	H 0.506896 3.605702 0.761699
	H 0.506896 3.605702 -0.761699
}

energy('MP2/def2-[TQ]ZVPD')
