!MP2 ZORA-DEF2-TZVP def2-TZVP/C DLPNO-CCSD(T)
* xyz 3 1
	La -0.031658 -0.226996 0.000000 newgto "SARC-ZORA-TZVP" end
	O 0.419619 3.030048 -0.000000
	H 0.512815 3.647642 0.778197
	H 0.512815 3.647642 -0.778197
*