!MP2 ZORA-DEF2-TZVP def2-TZVP/C DLPNO-CCSD(T)
* xyz 0 1
	Nd : -0.025388 -0.183142 0.000000 newgto "SARC-ZORA-TZVP" end
	O 0.964655 6.980019 -0.000000
	H 1.058134 7.594297 0.783969
	H 1.058134 7.594297 -0.783969
*