!MP2 ZORA-DEF2-TZVP def2-TZVP/C DLPNO-CCSD(T)
* xyz 0 1
	Nd : -0.025388 -0.183142 0.000000 newgto "SARC-ZORA-TZVP" end
	O 0.225332 1.630870 0.000000
	H 0.318811 2.245148 0.783969
	H 0.318811 2.245148 -0.783969
*