!MP2 ZORA-DEF2-TZVP CCSD(T)
* xyz 3 4
	Nd -0.025388 -0.183142 0.000000 newgto "SARC-ZORA-TZVP" end
	O 0.759288 5.494144 -0.000000
	H 0.852767 6.108422 0.783969
	H 0.852767 6.108422 -0.783969
*