!MP2 ZORA-DEF2-TZVP CCSD(T)
* xyz 3 4
	Nd -0.025388 -0.183142 0.000000 newgto "SARC-ZORA-TZVP" end
	O 0.348553 2.522395 -0.000000
	H 0.442032 3.136673 0.783969
	H 0.442032 3.136673 -0.783969
*