!MP2 ZORA-DEF2-TZVP def2-TZVP/C DLPNO-CCSD(T)
* xyz 3 4
	Nd -0.025388 -0.183142 0.000000 newgto "SARC-ZORA-TZVP" end
	O : 0.321171 2.324278 -0.000000
	H : 0.414650 2.938556 0.783969
	H : 0.414650 2.938556 -0.783969
*