!MP2 ZORA-DEF2-TZVP def2-TZVP/C DLPNO-CCSD(T)
* xyz 3 4
	Nd -0.025388 -0.183142 0.000000 newgto "SARC-ZORA-TZVP" end
	O : 0.485465 3.512978 -0.000000
	H : 0.578944 4.127256 0.783969
	H : 0.578944 4.127256 -0.783969
*