!MP2 ZORA-DEF2-TZVP def2-TZVP/C DLPNO-CCSD(T)
* xyz 3 4
	Nd -0.025388 -0.183142 0.000000 newgto "SARC-ZORA-TZVP" end
	O : 0.293788 2.126161 -0.000000
	H : 0.387267 2.740439 0.783969
	H : 0.387267 2.740439 -0.783969
*