!MP2 ZORA-DEF2-TZVP CCSD(T)
* xyz 3 4
	Nd -0.025388 -0.183142 0.000000 newgto "SARC-ZORA-TZVP" end
	O 0.362244 2.621453 -0.000000
	H 0.455723 3.235731 0.783969
	H 0.455723 3.235731 -0.783969
*