!MP2 ZORA-DEF2-TZVP CCSD(T)
* xyz 3 4
	Nd -0.025388 -0.183142 0.000000 newgto "SARC-ZORA-TZVP" end
	O 0.622376 4.503561 -0.000000
	H 0.715855 5.117839 0.783969
	H 0.715855 5.117839 -0.783969
*