!MP2 ZORA-DEF2-TZVP CCSD(T)
* xyz 3 4
	Nd -0.025388 -0.183142 0.000000 newgto "SARC-ZORA-TZVP" end
	O 0.252715 1.828986 0.000000
	H 0.346194 2.443264 0.783969
	H 0.346194 2.443264 -0.783969
*