memory 4 Gb

set basis def2-TZVPD

molecule{
	-1 1
	C            0.330577656403    -0.009897113177    -2.027827314437    
	C            1.849397656403     0.000942886823    -2.020747314437   
	O            2.397817656403    -0.950857113177    -2.642887314437   
	O            2.369707656403     0.964062886823    -1.391207314437 
	H           -0.058212343597    -0.866047113177    -2.587447314437   
	H           -0.045262343597     0.906452886823    -2.492697314437   
	H           -0.045262343597    -0.067967113177    -1.001957314437 
	--
	3 1
	La          -0.736222343597    -0.000547113177     0.858402685563
}

energy('MP2/def2-[TQ]ZVPD')

           
          