memory 4 Gb

set basis def2-TZVPD

molecule{
	-1 1
  H   -3.49341300000000     -0.39424900000000      0.95588100000000
  H   -3.51419400000000     -0.68815900000000     -0.76723100000000
  C   -3.16801100000000     -0.00148700000000     -0.00395100000000
  C   -1.69249500000000      0.00996300000000     -0.00384100000000
  O   -0.99690700000000      1.07483200000000      0.00101200000000
  O   -0.99764300000000     -1.05986800000000      0.00084100000000
  H   -3.55796600000000      0.99239500000000     -0.15366800000000 
	--
	3 1
  La  0.97693000000000     -0.00141300000000     -0.00005400000000

}