memory 4 Gb

set basis def2-TZVPD

molecule{
	0 1
  O   3.31317338029134      1.01982955631578      0.47663166468194
  N   3.19153797156471     -1.09349272066564     -0.31495539762914
  H   0.70052123462198     -0.80811901785443      0.73456727695084
  H   0.70052076784281     -0.18884568723305     -0.91873023986291
  H   2.66233356706182     -1.91715693602888     -0.62347523466687
  C   1.08069030335543     -0.01254101473272      0.08993684852107
  H   0.71364476198754      0.93817365407114      0.44604483326512
  H   4.20618385028495     -1.15721079698805     -0.33882226337046
  C   2.57182459632002     -0.06266260591871      0.07116262499842
	--
	3 1
  La  4.27852656666940      2.75573856903456      1.12685088711199
}

energy('MP2/def2-[TQ]ZVPD')

      
    

