memory 4 Gb

set basis def2-TZVPD

molecule{
	0 1
	O           -2.946677682621    -0.732460974173     0.881349943723   
	C           -1.723167682621    -0.728280974173     0.845099943723    
	N           -0.976677682621    -0.858680974173     1.977259943723    
	C           -0.925687682621    -0.582780974173    -0.418220056277   
	H           -1.468597682621    -0.959840974173     2.855519943723    
	H            0.033092317379    -0.858810974173     1.978339943723    
	H           -1.604417682621    -0.484660974173    -1.270120056277    
	H           -0.299017682621    -1.466470974173    -0.565980056277    
	H           -0.299017682621     0.311369025827    -0.361210056277
	--
	3 1
	La           0.692992317379     0.309259025827    -0.356820056277   
}

energy('MP2/def2-[TQ]ZVPD')

      
    
