memory 4 Gb

set basis def2-TZVPD

molecule{
	0 1
	O  -0.014627    2.526567    0.000000
	H  0.475373    2.816567    0.760000
	H  0.475373    2.816567   -0.760000
	--
	3 1
	La  -0.014627   -0.453433    0.000000
}

energy('MP2/def2-[TQ]ZVPD')