memory 4 Gb

set basis def2-TZVPD

molecule{
	0 1
	O            0.285877343182     2.074833433742     0.000000000000  
	H            0.377188447759     2.664735516108     0.761699445098 
	H            0.377188447759     2.664735516108    -0.761699445098
	--
	3 1
	La          -0.038391789670    -0.277582386900     0.000000000000
}

energy('MP2/def2-[TQ]ZVPD')

         
         