memory 4 Gb

set basis def2-TZVPD

molecule{
	0 1
	  O   0.28237617375659      2.03951048993164     -0.00000000002001
	  H   0.37557146456573      2.65710439069300      0.77819693895712
	  H   0.37557146456831      2.65710439071246     -0.77819693894658
	--
	3 1
	La  -0.03165810289063     -0.22699627133710      0.00000000000946
}

energy('MP2/def2-[TQ]ZVPD')

         
         