memory 4 Gb

set basis def2-TZVPD

molecule{
	0 1
	  O   0.280097              2.027103             -0.000000
	  H   0.373576              2.641381              0.783969
	  H   0.373576              2.641381             -0.783969
	--
	3 4 
  Nd  -0.025388             -0.183142              0.000000
}

energy('MP2/def2-[TQ]ZVPD')
